Au
 1.0000000000000000
    28.5950400629999990    0.0000000000000000    0.0000000000000000
     0.0000000000000000   28.0271298330000000    0.0000000000000000
     0.0000000000000000    0.0000000000000000   28.1988938060000010
 Au 
  31
Cartesian
 15.6855100000000007 10.9224599999999992 17.1439500000000002
 14.9084800000000008 13.3415099999999995 18.1604899999999994
 13.0113900000000005 11.6743100000000002 17.1097800000000007
 12.7537199999999995 14.4846500000000002 16.9826200000000007
 15.3769799999999996 15.5117200000000004 16.6205999999999996
 17.0061500000000017 13.2440400000000000 16.3871900000000004
 10.9234899999999993 12.8107500000000005 15.7112400000000001
 11.5189299999999992 10.1196599999999997 15.4652499999999993
 10.7277600000000000 15.5246600000000008 15.4614300000000000
 13.1871500000000008 16.7026199999999996 15.3830700000000000
 14.2055500000000006 10.0148600000000005 15.0251599999999996
 15.7560699999999994 17.5266200000000012 14.8373799999999996
 16.8124199999999995 10.8730200000000004 14.6898999999999997
 18.5692799999999991 12.9210999999999991 14.1997900000000001
 17.2637399999999985 15.2924500000000005 14.5273199999999996
  9.9983000000000004 11.3081099999999992 13.5355200000000000
 10.2444199999999999 14.0059600000000000 13.2228499999999993
 11.5796200000000002 16.4264699999999984 13.0157200000000000
 13.8029200000000003 18.0175200000000011 12.9933499999999995
 12.4569299999999998 10.1970200000000002 12.8564500000000006
 15.1868599999999994 10.3381000000000007 12.4775600000000004
 15.9969500000000000 16.4393899999999995 12.3025400000000005
 17.7156599999999997 11.3323000000000000 12.1161300000000001
 17.3636100000000013 14.0817800000000002 12.0011100000000006
 11.2721800000000005 12.2197999999999993 11.2893000000000008
 13.4985900000000001 16.1829700000000010 10.9876900000000006
 11.0948300000000000 14.8982899999999994 10.7780500000000004
 15.7773900000000005 12.2685800000000000 10.4520099999999996
 13.4564800000000009 10.8457299999999996 10.3944799999999997
 13.3558500000000002 13.5600500000000004  9.9607399999999995
 15.7246699999999997 14.9649500000000000 10.0006400000000006
