Au31 rank 17
1.0
   28.1681586727129236    0.0000000000000000    0.0000000000000000
    0.0000000000000000   27.5107291055727963    0.0000000000000000
    0.0000000000000000    0.0000000000000000   27.6565361246799064
  Au
  31
Direct
    0.5001431949356635    0.5809215075566064    0.6387561026130257
    0.5124065565703828    0.4814454838915219    0.6338696315335889
    0.5899980880457654    0.5419529778349379    0.6284957010190839
    0.5289005915576257    0.3885499388596818    0.6068853612861002
    0.4280734545970961    0.5254928201537660    0.6023412715928541
    0.4407367767469496    0.4268756291613579    0.5932203188497209
    0.5991140771492980    0.4541788828262358    0.5835012655571613
    0.5581011334632590    0.6105218618920002    0.5637419888195774
    0.4588533339901957    0.6122354097643338    0.5550434142546943
    0.3702595610419840    0.5744223298590395    0.5394149960043370
    0.6283949086623452    0.5374439293806299    0.5380848867067762
    0.3721756575409537    0.4747375876705345    0.5375459122268975
    0.5869464878097272    0.3706450763698875    0.5291382272018778
    0.4907515658084191    0.3598299454087555    0.5192494890614382
    0.3969703767581585    0.3787917626025077    0.5207642001021116
    0.6100500422338234    0.6179385431221583    0.4819110248569439
    0.6191315213975440    0.4516308739488243    0.4842122459608117
    0.3621570328846310    0.5291769382944699    0.4519743666171682
    0.4207104543187692    0.6112106967250248    0.4628963924891593
    0.3551204662051243    0.4303150912040923    0.4484203696546575
    0.5153617546813651    0.6376449733610989    0.4782432823898219
    0.5458051159433793    0.3960814350263610    0.4434057118740821
    0.6450721841517381    0.5350944963181672    0.4395799522795119
    0.4458476993694522    0.3900720159538794    0.4350391050672451
    0.5694054892131278    0.5817349217794678    0.3982388189534146
    0.5757983183697254    0.4802620942295331    0.3973321430469376
    0.4148389292620268    0.4714468904434432    0.3829236121057555
    0.4045057764317884    0.5691090399384251    0.3725584480397093
    0.4837805859103177    0.6237864017714828    0.3871301035359380
    0.4948212132090802    0.5279110705731148    0.3600662621340373
    0.5002602402489388    0.4288480807941705    0.3628787375379173
