Au31 rank 6
1.0
   27.9184246002399448    0.0000000000000000    0.0000000000000000
    0.0000000000000000   28.4373151921107166    0.0000000000000000
    0.0000000000000000    0.0000000000000000   28.1508817981621320
  Au
  31
Direct
    0.4667562555176250    0.4672877312505750    0.6299722786598312
    0.5641798094540310    0.4779742161055335    0.6435048699546242
    0.5100883680522521    0.5535316681272731    0.6133827546461975
    0.4158781140214942    0.5395740245844665    0.5885834987122543
    0.5277877604304043    0.3917394815238060    0.6188214571808304
    0.4429631288252609    0.3856515671443431    0.5726833696913450
    0.5952036870748965    0.4335374190005775    0.5605334659699375
    0.6031146037301818    0.5324551240938337    0.5745407012079661
    0.5643008969076033    0.6193159253916710    0.5669587789106262
    0.3755128214147234    0.4524670761888307    0.6016561058474453
    0.4667415327619418    0.6135357910056589    0.5486223643209135
    0.3611687975599083    0.4000667590527635    0.5214464320330431
    0.6433137301556954    0.4902157563011093    0.4976755046760010
    0.5284861732899873    0.3682101626670518    0.5252756849433614
    0.3563554262179153    0.4968878225682279    0.5158318822843498
    0.3770324096346419    0.5908056863379164    0.5156940566004231
    0.5968922744261834    0.5743913734737266    0.4845640630318954
    0.5313997171662312    0.6477658554566307    0.4809163408452405
    0.4408582263084059    0.3694546908801318    0.4747320729437933
    0.5946675679950197    0.4130861353572425    0.4656178745657791
    0.3818380444294895    0.4414315009491449    0.4373892858790283
    0.5891294091741124    0.5032707581533640    0.4175543406555465
    0.3815995346423457    0.5402222983812327    0.4328005754421344
    0.4447827102138804    0.6166777054811773    0.4514722042018331
    0.5260552168939454    0.3522773701557450    0.4305646585619218
    0.5324203764583085    0.5820220737754198    0.4099328708265580
    0.4625680248149487    0.4117784888720439    0.3877310126996653
    0.5611279295862347    0.4217864194946588    0.3731578344193860
    0.5077599896359706    0.5002720243542148    0.3620686860378272
    0.4101789337137524    0.4856323326806452    0.3565906514680657
    0.4450124301338931    0.5754218191934357    0.3646963162130615
