Au31 rank 9
1.0
   28.7661071438680551    0.0000000000000000    0.0000000000000000
    0.0000000000000000   27.9487023485897339    0.0000000000000000
    0.0000000000000000    0.0000000000000000   29.4506856402158661
  Au
  31
Direct
    0.5251173435729500    0.4701304333047113    0.6578989299281665
    0.5017212167697259    0.5620512261429803    0.6323398714123005
    0.5918736147698117    0.5243942718246782    0.6159620452362462
    0.4372619727355549    0.4861975439371667    0.6266016739356496
    0.5710723901159348    0.6173191243426005    0.5981354592251785
    0.4858602153416330    0.4027920302001615    0.6030084565147419
    0.4846605372052394    0.6223753398723694    0.5571693127401748
    0.5809078513273961    0.4259886506977911    0.5942208412743806
    0.4129100058168124    0.5786557013068089    0.6033275582965910
    0.3929529620533891    0.4117021837110550    0.5842789714380079
    0.6517192352020243    0.4786873791148230    0.5593140353452014
    0.3722957917583007    0.5041222948995371    0.5587938024723937
    0.6247748491453430    0.5699518122920104    0.5345462267172840
    0.5420561298248939    0.3564493865198317    0.5410748146967962
    0.5655685615155627    0.6426075998552437    0.5085955051508679
    0.4504112247806223    0.3693754120606634    0.5210810289220877
    0.4907139723948135    0.6077265811814975    0.4636586230148707
    0.6018457368070733    0.4207738176431146    0.5006800170381382
    0.4098520527576872    0.5843835880669281    0.5104486926080175
    0.3761417063273640    0.4291918070731879    0.4945701842044756
    0.3479763397849635    0.5214940422763572    0.4714699381685046
    0.6468389232023336    0.5027367145122573    0.4694078339083831
    0.5219445336514955    0.3916261949386439    0.4564693046552525
    0.4304380268256852    0.3797909828068717    0.4317321913591064
    0.5816830997046377    0.5702113880403618    0.4484071855858068
    0.3916565910098605    0.4655283944488096    0.4087124795989848
    0.5697605235962429    0.4717429178032454    0.4255450077355957
    0.4192596367549811    0.5622401294789415    0.4211641763545986
    0.5118746386342328    0.5444979404933787    0.3929145494308063
    0.4865423692002367    0.4465272755527265    0.3887440797773311
    0.4379805968526059    0.5148024141148806    0.3417180533357924
