Au
 1.0000000000000000
    28.7938456259999995    0.0000000000000000    0.0000000000000000
     0.0000000000000000   28.5932940930000008    0.0000000000000000
     0.0000000000000000    0.0000000000000000   28.1471003619999998
 Au 
  31
Cartesian
 16.0303399999999989 14.6916399999999996 18.1755099999999992
 15.0473599999999994 12.2634600000000002 17.4659799999999983
 13.3533500000000007 14.4675100000000008 17.6612299999999998
 12.3889600000000009 12.0280400000000007 16.5717199999999991
 14.7494399999999999 16.7591700000000010 16.9294000000000011
 17.5683199999999999 13.2028499999999998 16.4779200000000010
 16.8377899999999983 10.5937400000000004 16.1559300000000015
 12.0636600000000005 16.5350999999999999 16.2862900000000010
 10.7738200000000006 14.1736400000000007 16.8462800000000001
 14.1606400000000008 10.0406200000000005 16.1188900000000004
 17.3352600000000017 15.9509000000000007 16.0930399999999985
 13.5321200000000008 18.5718500000000013 15.2157499999999999
 12.7588600000000003 10.9486000000000008 13.9700900000000008
 18.7732500000000009 14.4531500000000008 14.3365299999999998
 17.8446500000000015 11.9097899999999992 13.9894800000000004
 16.2312300000000000 18.2063600000000001 15.0622399999999992
 10.0213900000000002 15.5837900000000005 14.6279500000000002
 15.4783500000000007 10.3390299999999993 13.7252799999999997
 11.9057999999999993 17.2140699999999995 13.5200600000000009
 10.8641000000000005 12.9476899999999997 14.3908600000000000
 14.6346000000000007 17.6180999999999983 12.8548899999999993
 17.0478200000000015 16.3088100000000011 13.2543699999999998
 11.1123700000000003 14.8306299999999993 12.2433300000000003
 16.8737899999999996 11.2204499999999996 11.5507500000000007
 11.4791000000000007 12.1483200000000000 11.8720900000000000
 14.1085700000000003 11.4559300000000004 11.5917700000000004
 12.8604199999999995 16.5900999999999996 11.0393100000000004
 17.4610699999999994 13.8947099999999999 11.9977999999999998
 15.4238499999999998 15.5878200000000007 11.1705600000000000
 13.1540599999999994 13.9246700000000008 10.5819299999999998
 15.6808599999999991 13.1198700000000006  9.9975900000000006
