Au31 rank 12
1.0
   27.9710093473857171    0.0000000000000000    0.0000000000000000
    0.0000000000000000   28.7209614508427862    0.0000000000000000
    0.0000000000000000    0.0000000000000000   28.1718087408764433
  Au
  31
Direct
    0.5492357420310711    0.4556060011717112    0.6449926065124535
    0.4573464455437942    0.4559099369711126    0.6136911707931733
    0.5167170587252324    0.5411535111976468    0.6193461015346859
    0.4193465879980555    0.5426882990155034    0.6255670038718826
    0.6151320755270894    0.4159955532529393    0.5866556089897244
    0.6039924333466278    0.5121228949924775    0.5847806627163263
    0.5196797776249763    0.3910222193238497    0.5765295192188865
    0.4658396469390243    0.6050226768567379    0.5657245467714805
    0.3810997604638391    0.4833941460090376    0.5574994246673964
    0.3728695553042545    0.5786218482276565    0.5475436963892490
    0.5625591869148422    0.5932974639450782    0.5512022785443702
    0.4291058607842577    0.4016901536008862    0.5382486609367192
    0.6421834898322074    0.4630345501727928    0.5070236591698489
    0.5854195079161670    0.3813661971876253    0.5015273877076024
    0.6413484672308497    0.5576016402123344    0.5068641951814751
    0.4951033180523263    0.3475582301497511    0.4927316333995380
    0.5101190015157180    0.6515606439825057    0.4944893656804050
    0.3576429781834157    0.4326596265597670    0.4797660056731378
    0.4253114810902983    0.6067302640532773    0.4713884527436495
    0.3701667886426599    0.5276170159387241    0.4661398261093183
    0.5765871843407250    0.5972241145493642    0.4469803066813202
    0.4369738325307441    0.3967230257965954    0.4334807550986683
    0.6296098614938711    0.4170515515317624    0.4230306152719885
    0.6177356680300173    0.5136650728850889    0.4236539357123149
    0.5332315187067399    0.3922833705184714    0.4155648974076424
    0.4929384954403751    0.6232535223948757    0.4029463420204902
    0.3837837053398827    0.4665942624316526    0.3924740983205521
    0.4350919690545296    0.5473779324842568    0.3927743834965565
    0.5340734336071836    0.5424718056143636    0.3758622109116436
    0.4775802104239271    0.4613657683346011    0.3703498840218378
    0.5729736925972290    0.4586477544117185    0.3564988196100670
