Au31 rank 1
1.0
   28.7938456262123594    0.0000000000000000    0.0000000000000000
    0.0000000000000000   28.5932940925529522    0.0000000000000000
    0.0000000000000000    0.0000000000000000   28.1471003619216731
  Au
  31
Direct
    0.5567280357209728    0.5138140857757532    0.6457330441652861
    0.5225894049607043    0.4288929839067959    0.6205248953247244
    0.4637571709795347    0.5059755910157787    0.6274617482269376
    0.4302641051193465    0.4206595740694428    0.5887540046800265
    0.5122426379478291    0.5861222330023530    0.6014615608478285
    0.6101414766556559    0.4617464549701806    0.5854215728668274
    0.5847702909777875    0.3704973729128135    0.5739820787092038
    0.4189665771295991    0.5782858750287376    0.5786133687661426
    0.3741710560827018    0.4956979519115193    0.5985084305480399
    0.4917939616310857    0.3511530361187647    0.5726660795527595
    0.6020474633157633    0.5578545197691908    0.5717477092815969
    0.4699657024093649    0.6495176094505283    0.5405795800918713
    0.4431106027757205    0.3829081219835891    0.4963241275853313
    0.6519883333126758    0.5054733051533040    0.5093430180326165
    0.6197382657994276    0.4165239131956638    0.4970132157255868
    0.5637049236281152    0.6367351451989227    0.5351258344277297
    0.3480392105464150    0.5450154943796484    0.5196965841308921
    0.5375577144949474    0.3615893695216735    0.4876266353333479
    0.4134843297601764    0.6020317024611936    0.4803357730465897
    0.3773061832584867    0.4528227476197181    0.5112733549386616
    0.5082545933709323    0.6161619450804380    0.4567038571601006
    0.5920647907958070    0.5703720180972636    0.4708964899252009
    0.3859286265854742    0.5186751463287991    0.4349764874585200
    0.5860208729121220    0.3924155333340358    0.4103706975450064
    0.3986651731253648    0.4248659249195942    0.4217873682765285
    0.4899855828280343    0.4006507974617171    0.4118283483670543
    0.4466377203770396    0.5802093070764075    0.3922006481070796
    0.6064166604603323    0.4859430565642708    0.4262535419608168
    0.5356646781236939    0.5451563433970605    0.3968637218472970
    0.4568359440213796    0.4869906148963625    0.3759509028691406
    0.5445908087494830    0.4588443063021604    0.3551906898819580
