Au31 rank 5
1.0
   28.9299684823774967    0.0000000000000000    0.0000000000000000
    0.0000000000000000   27.7367037039720472    0.0000000000000000
    0.0000000000000000    0.0000000000000000   28.6451316188236902
  Au
  31
Direct
    0.5332957815540721    0.4485541345677700    0.6497444611905476
    0.5451402878963455    0.5467494619844757    0.6469443204978864
    0.4597347643751244    0.5071588199946321    0.6271006128581981
    0.4640161181695208    0.4092034482814313    0.5989307694441890
    0.6027412502687333    0.4857493033654821    0.5954695958568604
    0.4894225254994120    0.5974512629998578    0.5876574551524152
    0.3996927040725124    0.5677272208068314    0.5830411829112834
    0.5567881138286319    0.4008922764092992    0.5703977963927950
    0.3901246999610448    0.4705044873498242    0.5724243865129491
    0.5838618487148646    0.5844897428689111    0.5683627836151972
    0.3961751801058672    0.3763935191621600    0.5421496475291465
    0.6534647830585063    0.5328224729674059    0.5299970188081021
    0.5294070805031116    0.6390385502949925    0.5111286807008043
    0.4849122566584071    0.3630670117223737    0.5140239523070943
    0.6239522698998631    0.4392845052690910    0.5122414000862779
    0.4394615085108036    0.6100677565108732    0.5047947627973762
    0.3736028267926068    0.5364764661627014    0.4967411349963528
    0.5748722917915096    0.3587267242979568    0.4866233336289538
    0.3464913845919194    0.4422951041662891    0.4911193377406506
    0.5929438196589767    0.5801637449902700    0.4700116820321910
    0.4164643679251543    0.3876834454681065    0.4492674233146737
    0.6478911309278543    0.5031997317782121    0.4396833821075761
    0.5052981586963031    0.5904758037706355    0.4315224566485819
    0.5080213843436542    0.3781990872952736    0.4212455113462799
    0.5934791400548515    0.4265392949296625    0.4198853364833294
    0.4122164395039018    0.5773656581825279    0.4192096167119953
    0.4721263000916102    0.5165625280306197    0.3752342502985481
    0.3890468982013481    0.4819709554282115    0.4155049142517836
    0.5649138944522321    0.5229874951359609    0.3965311604572685
    0.5330679398120414    0.4428490334286246    0.3496032535404048
    0.4424455756422867    0.4218254569268167    0.3644041547269683
