Au31 rank 10
1.0
   28.8451204868151052    0.0000000000000000    0.0000000000000000
    0.0000000000000000   28.2676237726591850    0.0000000000000000
    0.0000000000000000    0.0000000000000000   28.0185399070797132
  Au
  31
Direct
    0.4321669797842128    0.5221488354448930    0.6445083713827878
    0.4531119869540732    0.4290508964685824    0.6351235907886529
    0.4168281342265839    0.6179851968551512    0.6234240565982475
    0.5046971230522272    0.5864887786465840    0.6407557526783709
    0.5225326669181669    0.4944975228121771    0.6198740557980577
    0.3493505163149714    0.5533065637682557    0.6039739195743501
    0.3740705601365559    0.4614922315341500    0.5912598181489620
    0.5600478409773653    0.5708295494117417    0.5639743253347406
    0.5210139878857987    0.4094972787393017    0.5703992420151049
    0.4835461221988854    0.6308370384197485    0.5548486916897455
    0.5889598728763750    0.4766007564367714    0.5546938480687131
    0.4260165930724258    0.3883285343363954    0.5511539598601619
    0.3884005148508806    0.6084291134383529    0.5307143222326833
    0.3500289688492984    0.5210328816472667    0.5119388693457018
    0.3473349219602858    0.4239236892901072    0.5061414112087574
    0.4949825123970365    0.3532755146933646    0.4942299483862627
    0.6055775000209915    0.5447594971441492    0.4830130626787333
    0.5748473215917650    0.4037074042918397    0.4885268209112039
    0.6517192740850090    0.4605502485095634    0.4825191361521447
    0.5357274408374163    0.6093122980497250    0.4752550928716443
    0.4482997736037304    0.6471788851924846    0.4663802682761859
    0.4189128857578456    0.3916289444427365    0.4511351582610189
    0.3900799112838197    0.5728448669449232    0.4393332501785163
    0.3722993464653265    0.4762538856139003    0.4280027172339182
    0.5830447709908261    0.4711231560410231    0.4157619224119053
    0.5098689674342475    0.4083461215973067    0.4145816324536554
    0.5684592046104076    0.5646922993748470    0.3944822349442900
    0.4773886289034025    0.5886014039598381    0.3961117807822191
    0.5048695316373256    0.4963087540994959    0.3681395288320716
    0.4319316386962587    0.4331234787422721    0.3645889666292914
    0.4148530114148037    0.5285651415638356    0.3560461492220083
