Au31 rank 4
1.0
   27.8246873575843736    0.0000000000000000    0.0000000000000000
    0.0000000000000000   28.3147317002323362    0.0000000000000000
    0.0000000000000000    0.0000000000000000   28.5075086875480146
  Au
  31
Direct
    0.4825476961655845    0.4924181649435417    0.6490533775050517
    0.5663514394229179    0.4620994642650498    0.6084871967816854
    0.4841513269347341    0.4037801069848743    0.6117234140806602
    0.4342216919898069    0.5575857657504852    0.5965399175419984
    0.4045810148723190    0.4641309868115639    0.5968300121083808
    0.5364625932659178    0.5544924853819209    0.5967267035977095
    0.5696705369288394    0.3680934221097056    0.5809214045007345
    0.4866925637023660    0.6321771804840127    0.5647033616776410
    0.3584844982766057    0.5289255485090506    0.5415026643701576
    0.6389925374548849    0.4277957124149303    0.5500246434790514
    0.4028124624829996    0.3722309964322164    0.5684034098711316
    0.6145487912558140    0.5215022942822363    0.5474146077736650
    0.4205470148469674    0.5925543156242842    0.5030523656943647
    0.4915545134699801    0.3540463268402482    0.5257755032947645
    0.5689747781620567    0.6026834310327620    0.5181264337552565
    0.3712170973566169    0.4408704072983041    0.5052276270084541
    0.5748867092222020    0.3901261782211071    0.4845384373655080
    0.4957984458441605    0.6466069782012014    0.4698208501819360
    0.6340735987152816    0.4668606995730581    0.4637607895873443
    0.3841494993051617    0.5201038157084259    0.4487791431858861
    0.4081775184511301    0.3558860327512788    0.4740659900192202
    0.6399707133461849    0.5648241742086814    0.4649644143438524
    0.4565371216550334    0.5796512507884676    0.4125220118613597
    0.4930103227971351    0.3787640029954090    0.4317745066759713
    0.6134264625420479    0.5184530883502135    0.3847349152472015
    0.5658629209649869    0.4358540941791726    0.3991840204313746
    0.5556782462300670    0.5906327155173523    0.4189943102931431
    0.4208318265875978    0.5076579061162261    0.3609383862663813
    0.4023867714182592    0.4289178891949560    0.4134003811758501
    0.5189707332533215    0.5203981370225337    0.3621495397197078
    0.4803627367153674    0.4311324367767641    0.3525485502231423
