Au31 rank 19
1.0
   28.0877584481644931    0.0000000000000000    0.0000000000000000
    0.0000000000000000   28.3395073997049067    0.0000000000000000
    0.0000000000000000    0.0000000000000000   28.4345896908051543
  Au
  31
Direct
    0.5751631957237275    0.5567987027725919    0.6469077845479985
    0.4972078765440333    0.5025652242736970    0.6316930953091201
    0.4203798794225544    0.4511813061253293    0.6065294391738484
    0.5843626173198664    0.4820037808088884    0.5862678854920957
    0.5090563317710911    0.5906894480322711    0.5845328319116176
    0.5092973474564721    0.4191643027507931    0.5801654560282702
    0.4225269628666293    0.5448232321865943    0.5817403499907829
    0.6051393912862121    0.5772750181398382    0.5580832142498200
    0.5863221069564589    0.4148167421205898    0.5185232981429184
    0.4282408056620448    0.3984637553979803    0.5261457641531667
    0.3694944988562160    0.4780610484773839    0.5285833284496702
    0.4452016485757320    0.6162589719402988    0.5179082958979435
    0.5123216994204212    0.3523973235258221    0.5103524791797928
    0.3557792739466706    0.5727764385167586    0.5175218025599310
    0.6318998756025634    0.5004848774950843    0.5029783419446356
    0.5414079841103396    0.6226576590925922    0.4984400410129068
    0.6263570494611113    0.5894499392487874    0.4652174113070486
    0.6426575195193859    0.4281931340179720    0.4411861055787429
    0.3751561138741505    0.4239796766072114    0.4487204825413943
    0.4792276986529007    0.6481417405201589    0.4297364061843237
    0.4600653881852317    0.3805147713666927    0.4333773201372698
    0.3775656544650243    0.5201178464577881    0.4380119734560005
    0.3884072247042936    0.6164249344712424    0.4378466925664308
    0.5592363331237606    0.3774689804844880    0.4305570991640461
    0.5044402355020625    0.4048821372011762    0.3520125647166407
    0.4541823037306551    0.5610623329515583    0.3900369357581455
    0.6158061605066253    0.5163053514303880    0.4045245332568115
    0.4379640376607423    0.4658959841747411    0.3858265168339621
    0.5954481006497214    0.4348653301415174    0.3575547247414522
    0.5491609805131700    0.5867496039281651    0.4039252251420712
    0.5262832532556844    0.5030602557647483    0.3605683370541697
