Au31 rank 16
1.0
   28.2582690863652104    0.0000000000000000    0.0000000000000000
    0.0000000000000000   28.2774238392905204    0.0000000000000000
    0.0000000000000000    0.0000000000000000   28.6037882972729349
  Au
  31
Direct
    0.5218519639735056    0.5432717217702082    0.6491373052633654
    0.4349361533337449    0.5057330343954221    0.6234355611381387
    0.4499957450915520    0.6030566019161095    0.6261925077414586
    0.5194088234781581    0.4538533341578881    0.6147892615763545
    0.4330021029938293    0.4146479522779886    0.5868075818618249
    0.3602520634150910    0.4750006117276412    0.5717961528325072
    0.5844466996392902    0.5206615408768097    0.5812271867237659
    0.5179669454506848    0.3666319451521865    0.5746316289122171
    0.5336744582706450    0.6057042989724263    0.5748127358810214
    0.3792082558253105    0.5693731323600107    0.5705559493649631
    0.5888641462593897    0.4262831042074799    0.5508370550380728
    0.4459275741406500    0.6379631569805895    0.5374076040735513
    0.4461598752249109    0.3555461599987368    0.5117613285634817
    0.3856891838121738    0.4272031094619758    0.4930374704827605
    0.6457193443034813    0.4964806828897624    0.5126906265626193
    0.5930206281496579    0.5767908473190346    0.5014328031633010
    0.3534880045500906    0.5201016807646808    0.4878425337739369
    0.5280706566451867    0.6459731550393603    0.4890084259224702
    0.3654122222955292    0.6177856321421613    0.4888912169964147
    0.5366538956686427    0.3755004736732203    0.4800352772117873
    0.6202603740863598    0.4200107117305402    0.4596610081322760
    0.4498348331572586    0.6204066969355575    0.4397046941341500
    0.6016270684051878    0.5111760255356028    0.4287166276883567
    0.5399771514832831    0.5860096376053323    0.4159713454039527
    0.3708728725368132    0.5702760878218549    0.4062627939894470
    0.4561092802489829    0.3999637631222058    0.4285310075013823
    0.3967384486765592    0.4770307319576306    0.4121477206170647
    0.5463566943353843    0.4282629891240018    0.4000413431860013
    0.4584106010205263    0.5490519090178345    0.3744524154849367
    0.5458598106462016    0.5129403509783477    0.3525151722353423
    0.4671208002505693    0.4546139460725216    0.3504591112142377
