Au31 rank 13
1.0
   28.8373268869134805    0.0000000000000000    0.0000000000000000
    0.0000000000000000   28.9196714897229086    0.0000000000000000
    0.0000000000000000    0.0000000000000000   28.0004521510016176
  Au
  31
Direct
    0.5499935587019753    0.4206386404616548    0.6427734907587150
    0.5061364729109586    0.5023439554912840    0.6295531813403089
    0.4108816808505377    0.4986131622023580    0.6210020985806060
    0.5928743376570711    0.4867953102690267    0.5884432299390586
    0.4574274305500848    0.4170934419131963    0.6135182339621900
    0.4563359735525045    0.5775119094868275    0.5960282483140426
    0.5524868655267753    0.5705056189796096    0.5790713953761694
    0.5995081363276864    0.3915292257564296    0.5645308838149803
    0.3912786423056010    0.4406228687645765    0.5462686527793915
    0.3882474108008748    0.5414293635230909    0.5370073101391156
    0.5177409861696260    0.3470791869643279    0.5909356068053773
    0.6053766559917583    0.5383418132164745    0.5017749154078627
    0.4488808412210608    0.3666253841411278    0.5275603236904094
    0.5059521351553834    0.6523962158198844    0.5645306106186607
    0.4439666924507649    0.6119944032230160    0.5034621325688080
    0.6522728757624879    0.4584752471653042    0.5194666694480012
    0.5441640189745323    0.6088042242129975    0.4877040933635315
    0.5415953802057454    0.3450717254513030    0.4976874429911986
    0.3473525055760884    0.4843640879599573    0.4726588295705077
    0.6246745219676284    0.3811726836218444    0.4702905587146501
    0.4032463783463227    0.4100330206442996    0.4536224037387196
    0.6098090479918808    0.4685664478754959    0.4322501099910061
    0.4034840058080123    0.5551517815425665    0.4387563103311466
    0.4710483445418932    0.3483970937436445    0.4328434794881261
    0.5576261821730614    0.5476372003184766    0.4155824290599812
    0.4815001267139466    0.6057680686657960    0.4137429491011949
    0.5525866566594431    0.3919418624923037    0.4090452060719538
    0.3880323713687652    0.4773938676195531    0.3838797826911636
    0.4672962434643690    0.4256438775105185    0.3772506059082218
    0.4711702703098154    0.5217382547413324    0.3730763395512662
    0.5498000809241300    0.4722334138341352    0.3570476553487440
