Au31 rank 7
1.0
   28.6490633865884163    0.0000000000000000    0.0000000000000000
    0.0000000000000000   27.7054264847641782    0.0000000000000000
    0.0000000000000000    0.0000000000000000   28.6278759602098418
  Au
  31
Direct
    0.5288355510468998    0.5232269881447872    0.6251172582479017
    0.4157523924059692    0.4203939859929834    0.5863075157963349
    0.4834160847930417    0.4373519866141830    0.6506234430796225
    0.4326150521080429    0.5149054530507877    0.6227010585232133
    0.4760619459846193    0.5949588746355893    0.5818664134471638
    0.5735668628377567    0.4336320497911587    0.6221656463791682
    0.6095865439680932    0.5071537816675933    0.5716485236485283
    0.3813065430325664    0.5838360198022556    0.5774596706713192
    0.5055170474724490    0.3846433675114062    0.5706057736761696
    0.3498173494525706    0.4895538189974007    0.5756310683342233
    0.5709264049836695    0.5967721097817729    0.5769808041130859
    0.5881856154759199    0.4151171039248405    0.5293094113640792
    0.6505923413853739    0.4797387096540625    0.4905466289350722
    0.4251352498397805    0.6213889644817054    0.5028342774080476
    0.5230520328701026    0.6240756123772799    0.4988502225792975
    0.3599815371543014    0.5402990408163433    0.4936936617437107
    0.6030003004981924    0.5681332010038556    0.4919757038527316
    0.5176860441162315    0.3771233708336963    0.4754341376737082
    0.4314660384891888    0.3597823307115894    0.5133825732920988
    0.3778255624183159    0.4414523373489456    0.4962558225536091
    0.5872863661657385    0.4305059841935606    0.4342999218314776
    0.4703590430272631    0.6386141263469413    0.4205896729672643
    0.3862142521992569    0.5921845733540894    0.4184906081386960
    0.6203779974136918    0.5204684143405293    0.4088545706715982
    0.5465559833675476    0.5818988575406877    0.4129217682078676
    0.5169563302366675    0.3940694795671752    0.3809323899854863
    0.3896729356843525    0.4927770365079601    0.4146133546162800
    0.4321934051502663    0.4023477436577144    0.4276047907308499
    0.5383963616525337    0.4918837760758796    0.3702886236387526
    0.4614079998782655    0.5522430679776966    0.3724634246885838
    0.4505049493325791    0.4576495868475534    0.3500010086022708
