Au31 rank 8
1.0
   29.4622744061493300    0.0000000000000000    0.0000000000000000
    0.0000000000000000   27.9612254415837675    0.0000000000000000
    0.0000000000000000    0.0000000000000000   28.1681035770647412
  Au
  31
Direct
    0.4747342044239211    0.5717149382720798    0.6454301250727563
    0.4763059491253360    0.4762868578973593    0.6250983422763225
    0.5610868961532127    0.4374239011480796    0.6242498999492713
    0.5574487884734012    0.5351302239912868    0.6186964650913162
    0.4053615597500961    0.5333783900651596    0.5942089043074331
    0.5352232435961237    0.6277803937927956    0.5959302839770914
    0.4935386522334895    0.3936654638231536    0.5729071155275637
    0.4081234507445067    0.4355539308375875    0.5719740341817870
    0.4488700131996894    0.6175415128031599    0.5615488131452637
    0.6180034399144648    0.4876288715708415    0.5642174637795803
    0.5962130545055513    0.5801464396207496    0.5393038263844201
    0.5791687890040603    0.3976469794171498    0.5364225378658136
    0.3403069014150070    0.4927948651167557    0.5390574093210349
    0.4277418323811220    0.3588090603645752    0.5157255665328102
    0.6590921479880524    0.4292783702892916    0.4989709086903942
    0.3819427883198717    0.5752388852174637    0.5074161606817400
    0.5252858140108088    0.6379639605701520    0.5007489914633120
    0.6266804954494003    0.5160704517381507    0.4692323700942498
    0.5116728635090307    0.3745654349143447    0.4740244233186114
    0.4384561013574466    0.6411923136412626    0.4685496290970426
    0.3719254611055671    0.4258029982723689    0.4764180573960631
    0.5821881021930524    0.4319788638192861    0.4428634463441822
    0.5895435029402850    0.5999215096560618    0.4433766756004164
    0.3427675056299044    0.5127726207255507    0.4427912212192779
    0.4336975152954201    0.3778216192968017    0.4200335159576747
    0.5030215180404044    0.6015915764193677    0.4095006433459978
    0.4130835413854657    0.5675694571727157    0.4109073477632846
    0.5606969328962748    0.5176411356366477    0.3988715522300051
    0.5024320033466371    0.4385525927580098    0.3960177404753843
    0.4107963409647066    0.4682946482286800    0.3937656971348772
    0.4779865184788620    0.5241468774360675    0.3564794571797840
