Au31 rank 15
1.0
   28.3630705330420199    0.0000000000000000    0.0000000000000000
    0.0000000000000000   27.6191382326128689    0.0000000000000000
    0.0000000000000000    0.0000000000000000   29.5562490487446965
  Au
  31
Direct
    0.5356305678362158    0.4915915067320197    0.6612677886777849
    0.5520570404289762    0.5838824599739081    0.6287257466314548
    0.4602797838161596    0.4429292460445989    0.6259204121316725
    0.4620972627859311    0.5445361422826678    0.6228855295996636
    0.5522767349516079    0.4175853815099755    0.6015967554384254
    0.3800010655850772    0.4947654999503244    0.6083874936971020
    0.6039835283248320    0.5064393984343413    0.5967371010779055
    0.4783198708731753    0.3614817219419755    0.5742505696648645
    0.4924824749178822    0.6136053310744523    0.5614738635936025
    0.4023485852811748    0.5763564726120696    0.5567620553226995
    0.3987281399012409    0.4143617959087879    0.5564907401821149
    0.5882939361955903    0.5905774755697160    0.5435647101440247
    0.6274280868446258    0.4269715120664122    0.5451260173208625
    0.5476411822044145    0.3842800032600861    0.5117632749720663
    0.6476707577795885    0.5188209555148376    0.5142301442440913
    0.3512233303097209    0.4946071761232960    0.5205658810460719
    0.4421533035489409    0.6220460303199202    0.4821849011456516
    0.4537222205013030    0.3750688783912488    0.4856347559976777
    0.5369618698284715    0.6401390565853018    0.4814476635006052
    0.3527881467408121    0.5816414607490643    0.4779049030456960
    0.3648706666083508    0.4121986350304085    0.4702557548018866
    0.5842345024761534    0.5564339312853391    0.4543771840010116
    0.5243682608857593    0.3997535159756874    0.4243340784373947
    0.4059414728890309    0.5896048010697523    0.4009534126213717
    0.5015351590435494    0.5845566210894458    0.4126466511371134
    0.5947530455045924    0.4557122810481357    0.4613031795998388
    0.3722540262850519    0.4991591969317158    0.4267207037850327
    0.4295859354807327    0.4192434659934554    0.4039813721512980
    0.4507145530823580    0.5108788790933450    0.3691266679476480
    0.5456386370640871    0.4973450469935199    0.3913404682216301
    0.4985431924587534    0.4305106386292285    0.3402172089950128
