Au31 rank 2
1.0
   28.2483391157544332    0.0000000000000000    0.0000000000000000
    0.0000000000000000   28.3212819535030960    0.0000000000000000
    0.0000000000000000    0.0000000000000000   28.0429983749774721
  Au
  31
Direct
    0.4877127009319709    0.5910469474210153    0.6433951794932070
    0.4661880142190353    0.4980174723878725    0.6368507103175817
    0.5612082855082374    0.5276081495737451    0.6349871554443774
    0.5411050476103695    0.4339883954161174    0.6236114797611799
    0.4479450084619461    0.4053356571235136    0.6210395183797299
    0.5717043697449137    0.6208537489747517    0.6052149294271655
    0.6296809048856582    0.4672370062687985    0.6020012854746202
    0.4176342077610553    0.5658371333221071    0.5824833618318263
    0.5144712636075004    0.3536305905786177    0.5731051094655963
    0.3970733799298336    0.4695118387480289    0.5708513470724704
    0.6276631631254250    0.5548704811632047    0.5618230581563746
    0.4882527429079601    0.6295053800042858    0.5531610450362884
    0.5944810349730696    0.3991155722525663    0.5431376266010947
    0.4371878283018418    0.3911454121878049    0.5244653305663153
    0.3544237660745801    0.5360587860462802    0.5162986042240590
    0.5797020461743431    0.6220528533511137    0.5080265897926621
    0.6434357853755064    0.4758075669950962    0.5043664163093005
    0.4209220530407561    0.6018965744949745    0.4890919588590664
    0.5259121358510173    0.3709503217301699    0.4778515874525676
    0.3900145554814315    0.4570327326159046    0.4716295614487667
    0.6460144614002185    0.5646425575680374    0.4662656858742790
    0.5009382203818612    0.6471862486893030    0.4578848408832487
    0.6116820683706706    0.4044702343417013    0.4470022050333036
    0.4462057872231056    0.3915513147864566    0.4270765209929492
    0.3798143580991416    0.5418051982892864    0.4223197953756834
    0.5652136717473054    0.5851905685581434    0.4167244517002957
    0.6073229166025179    0.4944243457181213    0.4119192294477625
    0.4678888181569400    0.5759937509807773    0.4015251865227822
    0.5319752991644416    0.4296848190321269    0.3978911645781237
    0.4474582643814001    0.4805748647048057    0.3900493730034622
    0.5309556587954215    0.5171961556026994    0.3566251111302223
