Au31 rank 20
1.0
   28.0671993572163281    0.0000000000000000    0.0000000000000000
    0.0000000000000000   28.4838785250426660    0.0000000000000000
    0.0000000000000000    0.0000000000000000   27.7146760805894985
  Au
  31
Direct
    0.4948438318829567    0.4979790925676207    0.6394637517246651
    0.5830071965410690    0.5373595206825407    0.6330911608889412
    0.4038286085929285    0.4636983844394336    0.6258509638266635
    0.4200549839639016    0.5589544002893292    0.6211813351754163
    0.5706577019036507    0.4438211298750319    0.6107230783046895
    0.5087943049825709    0.5882642779444914    0.5954004421759893
    0.4793360081404064    0.4092971533882303    0.5993164856840758
    0.6008000554164745    0.5956727639680524    0.5580784277673472
    0.6349845257158320    0.5044829615472892    0.5568167341094046
    0.3708487948575886    0.5150294607177824    0.5482897145667692
    0.6431433753544943    0.4096548753222825    0.5552707635724569
    0.3965036730738786    0.4182486449233676    0.5402740062877787
    0.4338423165088970    0.5921789328428096    0.5297072676255787
    0.5533912899478163    0.3699075569556181    0.5476985305548863
    0.4628040887380769    0.3514150237252464    0.5202173416549389
    0.5204898461485870    0.6257367295313055    0.5037992571511041
    0.6121605253097706    0.6469871658926239    0.4763481356333060
    0.6311593256201641    0.5529897176014124    0.4702962572283388
    0.6382738854889418    0.4583960269068098    0.4680510512533647
    0.3731518801823343    0.5595131488031936    0.4603206188062295
    0.3568987772919693    0.4642437366101203    0.4646933965650568
    0.6185628536575426    0.3616965446485638    0.4737384017664231
    0.4343874566290546    0.4097360868661794    0.4450614909805578
    0.5241681454771790    0.3700984489955523    0.4474461673830811
    0.4613957523803249    0.5889083745879048    0.4330756335250059
    0.5586219102921315    0.5961230402939208    0.4136955990447417
    0.5878078701486205    0.5047901481569592    0.3955264546940842
    0.5033529956330781    0.5381139762542835    0.3603920692499853
    0.5049075675111383    0.4444045213916138    0.3853383374213921
    0.4259532872666085    0.4987015412771419    0.4033662442113413
    0.5954463064544796    0.4099678086681353    0.3919875742099641
