Au31 rank 14
1.0
   27.4645223819107187    0.0000000000000000    0.0000000000000000
    0.0000000000000000   28.5034566277993520    0.0000000000000000
    0.0000000000000000    0.0000000000000000   27.5385524230377854
  Au
  31
Direct
    0.4393572967492725    0.5110627353822760    0.6075963448808256
    0.5291453388750338    0.4776413634475061    0.6371660761957751
    0.6210255490459459    0.4410461245423672    0.6234817169946643
    0.6091476115079557    0.5356553008101028    0.6249344584366135
    0.5181059407409907    0.5709303594008600    0.6118579332365490
    0.4565445804499055    0.4156949303317908    0.6217610956638208
    0.5454899285548319    0.3886146358355515    0.5868073794570985
    0.6353823637820734    0.3943234631138369    0.5388444716306533
    0.5248865196735545    0.6440678257241056    0.5490079630282064
    0.4376100272667790    0.5954859843225283    0.5569765599456770
    0.3921393764743282    0.4406669987538657    0.5516549233027989
    0.6384279909495770    0.4917227963335836    0.5368128733932732
    0.3641767960688723    0.5325253775637897    0.5455995503615532
    0.5974280748971033    0.5798687597403434    0.5386387178793097
    0.4633345773110816    0.3693538357590646    0.5346274149371371
    0.5551336704666219    0.3687321877588425    0.4879940867372679
    0.4601377183526927    0.6483463178992370    0.4746592101935740
    0.3862683122257054    0.3860866505193649    0.4707220830407749
    0.6192537829992709    0.4382779388669989    0.4536631207505736
    0.5546715907441296    0.6166977743342008    0.4566177028122740
    0.3978595410795683    0.5751657368102699    0.4635458348160300
    0.3708333854339011    0.4807265977809511    0.4615821382062113
    0.6162355213337302    0.5370771193664119    0.4517871115163714
    0.4729856634398443    0.3524528922370770    0.4366800001626097
    0.5381251261063491    0.4138233397862111    0.3984135792997859
    0.4751964920244724    0.5902350076155554    0.3977604289021404
    0.4374440459913594    0.4335645359448771    0.3978959164270989
    0.4068998352694191    0.5228250385913608    0.3794536611776416
    0.6012885618447666    0.4818221437664060    0.3683677698743070
    0.5685528266086883    0.5718064083924435    0.3704976950073515
    0.5019890920168698    0.4990333147019212    0.3628136335714591
