Au31 rank 18
1.0
   28.5977416775029525    0.0000000000000000    0.0000000000000000
    0.0000000000000000   28.0428122330739384    0.0000000000000000
    0.0000000000000000    0.0000000000000000   27.4837802088273193
  Au
  31
Direct
    0.4521429080159865    0.4181510486770271    0.6362883334737780
    0.5200700205031782    0.4859672613914663    0.6470619464620498
    0.6074740445945851    0.4665609392254683    0.6102194056884257
    0.4253023181509508    0.5072432827077148    0.6101120360971697
    0.5414172139816760    0.3928204190696975    0.6183238788950933
    0.4868561067082701    0.5763764814329756    0.6378859709725746
    0.4344866507093182    0.5915359946657029    0.5566928801694293
    0.5746393393932906    0.5564161718503647    0.6012720194259199
    0.4709870847800211    0.3619777038355798    0.5563945202190488
    0.3910757703348063    0.4270424643631546    0.5615755910513504
    0.6323690133406961    0.3741363369485258    0.5933297896562337
    0.6436840447932578    0.5261083428114359    0.5395531210301878
    0.5241419673232309    0.6303446465374859    0.5631261664480885
    0.6322909989603441    0.4323144507469275    0.5137714543753964
    0.5630037313577783    0.3631854411384521    0.5237565768595794
    0.4032372986633401    0.3603339600408905    0.4873867888445957
    0.3780828979568742    0.5185405706217991    0.5234823139011318
    0.3965852570675388    0.5964361097087171    0.4670022674028390
    0.5778052401435867    0.5819455568743597    0.4975370575824598
    0.3522556691240118    0.4408999875013644    0.4708109974381987
    0.4913561151378751    0.6161080147825195    0.4713178633877219
    0.4934772060842434    0.3623673996232843    0.4568686577144530
    0.6122131184706663    0.5021835189114449    0.4479207329057828
    0.5803928622702518    0.4058354118259603    0.4346879271696954
    0.3947752751087039    0.5099416682207566    0.4183993815227039
    0.4237523774619149    0.4165267033790762    0.4068237221515283
    0.5417711231943437    0.5575606093858874    0.4080669606703708
    0.4521769637311499    0.5833813245343543    0.3862171363766943
    0.4742686813717967    0.4915184577666134    0.3653213958078819
    0.5093303331088150    0.4000358225471690    0.3671377633559726
    0.5697149219147438    0.4756338437582426    0.3635982152586454
