Au31 rank 11
1.0
   28.0822059412194065    0.0000000000000000    0.0000000000000000
    0.0000000000000000   28.3454020444543531    0.0000000000000000
    0.0000000000000000    0.0000000000000000   29.6426354532243721
  Au
  31
Direct
    0.4902817684461290    0.5616147427508967    0.6609298774846892
    0.5159733990430290    0.4797562686296403    0.6173817542188635
    0.4189013038229598    0.5111598471278429    0.6216383448699142
    0.5459729840972064    0.5664092200221714    0.5845126274919904
    0.3634174293419682    0.5602294343864356    0.5616867550331840
    0.4401655802882961    0.4182061922569503    0.6084104363019511
    0.4513800228967542    0.5976915993154964    0.5829697342851698
    0.5866173028654048    0.4817024954784210    0.5541322608038193
    0.5217512901309735    0.4069423462874470    0.5585523593944235
    0.3720812637827954    0.4637146729440805    0.5550478721258149
    0.5945350110434480    0.5677536766077905    0.5059525936432219
    0.4263631840468554    0.3871283947791893    0.5230281199252085
    0.5129251547542878    0.6245936972762063    0.5164421974725406
    0.6445136616684763    0.4900919237413978    0.4809128169885540
    0.5842624911346781    0.4121139480269868    0.4863196807360355
    0.5071605534316960    0.3537007297579026    0.4836913922206236
    0.4143395548824336    0.6087634948792261    0.4983123081356686
    0.3642750323081931    0.5247419610631346    0.4768406040646663
    0.3566860910686607    0.4284297735820927    0.4713429710076744
    0.5681582148493698    0.6298086210864576    0.4402511853343570
    0.4336300687702266    0.3881055855266586    0.4300687462427155
    0.5983057480674383    0.5428832689714449    0.4134391403781347
    0.4715024975977370    0.6470561550975310    0.4336978260987928
    0.6125549643818138    0.4475200295033297    0.4039914067329480
    0.5299639529980009    0.3987845842108295    0.4055565506283587
    0.4154399877450347    0.5719742374099596    0.4119374390710756
    0.3913755042617804    0.4781097753078260    0.3998697497492542
    0.5135925002912303    0.5805067029522395    0.3790808522166183
    0.5371228739892845    0.4883734291828715    0.3610405702187433
    0.4583681824622378    0.4292281948856415    0.3508283829235475
    0.4480708193666696    0.5248078538909507    0.3379905019461114
