Au31 rank 3
1.0
   28.3930486960996262    0.0000000000000000    0.0000000000000000
    0.0000000000000000   28.1913282862794077    0.0000000000000000
    0.0000000000000000    0.0000000000000000   28.2196473887462673
  Au
  31
Direct
    0.5525954043317721    0.4747648059152644    0.6446046036816203
    0.5134648728557135    0.5633341382170908    0.6390000869103949
    0.4558977739573757    0.4856418586403762    0.6344444126089043
    0.4124371715241252    0.4038656358157888    0.6090797355226200
    0.5072435435665906    0.4056303780882971    0.5939572452994170
    0.4342732147821035    0.5704642463781561    0.5858967751902875
    0.3794524059074577    0.4893740550343364    0.5742738818848434
    0.5889768832659522    0.5413303388459969    0.5821034032524137
    0.5946446883090223    0.4389491041657107    0.5665603962954752
    0.5215272447193601    0.6087456473557760    0.5551029341516049
    0.3604150132179600    0.5695601564026761    0.5233618735096253
    0.3559532331531339    0.4032390010533778    0.5307531114671149
    0.4476066367730582    0.3688668156060684    0.5243812633878555
    0.6471554683258383    0.5032032034589683    0.5163199610188260
    0.5425962196049731    0.3795252626147816    0.5070716103097196
    0.4409573364685844    0.6164181869550304    0.4993563130738819
    0.5904852354044909    0.5768022832793511    0.4902547020370336
    0.3528655993381928    0.4839693295387875    0.4774113045917914
    0.6267628081741931    0.4162055348304306    0.4767330017116313
    0.5274477274298494    0.6449133263963964    0.4660802684116050
    0.3987550079523398    0.4018849551046684    0.4437963178527214
    0.3887874339604274    0.5625491872899220    0.4307310874086047
    0.4820490016978767    0.3543072703459287    0.4350722422285787
    0.6021976805950955    0.4989946193163373    0.4295713921113409
    0.5566438915677888    0.4102060371421741    0.4113477636044287
    0.5435766076873576    0.5714994049821833    0.4029258412820683
    0.4591090783940375    0.6221546377158275    0.4019820847157586
    0.3810311386316405    0.4767273915732073    0.3848373230571961
    0.4668118648143544    0.4319387722966941    0.3779556779803993
    0.4589356899841762    0.5312396211400078    0.3682246993110903
    0.5431354445760799    0.4871942479027561    0.3539708223218625
