Au43 rank 13
1.0
   28.8921660180875151    0.0000000000000000    0.0000000000000000
    0.0000000000000000   32.5158296121558124    0.0000000000000000
    0.0000000000000000    0.0000000000000000   29.4993574174934210
  Au
  43
Direct
    0.5661715314171353    0.5294992737364315    0.6590022244363869
    0.4885624778773401    0.4898931418867885    0.6287057195012119
    0.5017564477446329    0.5733661168781434    0.6097845375841665
    0.5904319467645404    0.6058466878581812    0.6263046449914877
    0.5761757103722843    0.4589525043457732    0.6090978846254606
    0.4117537630793611    0.4529546458101991    0.5939737007586871
    0.4975928875639317    0.4158693542117546    0.5828624949153672
    0.6278589457052940    0.5342240539267710    0.5890167942411855
    0.4255835429303539    0.5335747813521873    0.5734620463943995
    0.5304429103639444    0.6521050979127171    0.5765779302633701
    0.6520366533052661    0.4606253376168257    0.5531979372801324
    0.4465071613139491    0.6131036659565767    0.5483037056003279
    0.5854474346262963    0.4010226440659996    0.5410551490463641
    0.4241827003276418    0.4019884648799966    0.5214990392084247
    0.5892930320630690    0.5936773924166354    0.5327881148749600
    0.5070894747339547    0.3590936374232832    0.5155006781578882
    0.4656947813036078    0.6927595928940372    0.5224808711423581
    0.3852275212014534    0.4803435248550790    0.5105718396035733
    0.5040659620937906    0.5453784391338620    0.5119990812437486
    0.5317315350037695    0.4657075781759823    0.5067605939626536
    0.4000896480763977    0.5623557881014154    0.4877832421633895
    0.6339557855042952    0.5265345065798035    0.4955546075609375
    0.5199679291188183    0.6323734241308956    0.4835013265275997
    0.6250664277400726    0.4455743919973977    0.4658126605360491
    0.4233566012780512    0.6423846152881624    0.4602657417956024
    0.4412049986552586    0.3551518471829849    0.4461456640263256
    0.5770007925376447    0.3751577386960768    0.4517199771586803
    0.4645740322132027    0.4922642590856167    0.4494098754599820
    0.5200442131751776    0.3076493937554901    0.4420947784580960
    0.3953143021910144    0.4276751956850133    0.4361001980636435
    0.5714949080057414    0.5718561168746610    0.4430159706726594
    0.3655796444552668    0.5077874663937132    0.4241356194884593
    0.4794800716742512    0.5834481027166576    0.4174861340946450
    0.6206213729603480    0.5096418527164401    0.4050411529321675
    0.3834407048577983    0.5911125265630843    0.3985700459186239
    0.5683740709982938    0.4400942462814686    0.3900318470167933
    0.5108785623367593    0.3733377908072857    0.3828388619693507
    0.5307555495886881    0.5192720922920532    0.3796921175398625
    0.4181071711815876    0.3814121373499522    0.3589969440071867
    0.4772898739730675    0.4494921961157917    0.3621085060584774
    0.4381382923220472    0.5271715944747583    0.3592208658904711
    0.3805053965102048    0.4578476268407153    0.3462217367060448
    0.3452658493275683    0.5368937303743797    0.3377738758679341
