Au43 rank 11
1.0
   29.0158546250941498    0.0000000000000000    0.0000000000000000
    0.0000000000000000   29.3280708597116657    0.0000000000000000
    0.0000000000000000    0.0000000000000000   28.9827570258689633
  Au
  43
Direct
    0.5484640985456399    0.4300561356938455    0.6554267691570957
    0.5311567228158961    0.5213816691319451    0.6341456743443054
    0.4819241598207727    0.4500750745677099    0.5908309185982342
    0.5958068756296614    0.4662455573197854    0.5817515633456977
    0.5152556752877583    0.6070924252323677    0.5960755190721758
    0.4507858000619767    0.5388618240436366    0.5833654251026330
    0.5501839629469393    0.3830191550378068    0.5716694516838804
    0.5983750724546512    0.5601313232569678    0.5790660758851877
    0.5893820816844983    0.6515140373411259    0.5576065935983063
    0.4286544530091687    0.6301458260348513    0.5628733192810814
    0.4159833398153755    0.4721740361456014    0.5263829983726737
    0.5308586639691066    0.5043060667882918    0.5197504616252103
    0.3755790910297036    0.5574069099514612    0.5261657625036249
    0.4729703817146568    0.3980787609168117    0.5117723685692256
    0.6547531882698022    0.5978332661469619    0.5129060206384827
    0.6301303032313902    0.5070239562528587    0.5035065017278331
    0.5924326955698180    0.4210866163291299    0.4950829908642512
    0.5058705163376066    0.6578827593372929    0.5133203673735285
    0.5422341034033784    0.3391965285434121    0.4881670445024830
    0.3432807274374415    0.6460543300802641    0.5221197809092450
    0.4677691935477988    0.5676138819100439    0.4856066285498093
    0.3696345904865902    0.5018777313715362    0.4489838652330397
    0.4011168996566354    0.4134437507940844    0.4517447348051283
    0.5867289548451744    0.6426752784655859    0.4635049962474459
    0.3460305377828282    0.5959945293553092    0.4411061543121078
    0.4745309972080551    0.4811005628029460    0.4440879794511053
    0.4210874544888232    0.6505743938412933    0.4665304948795521
    0.4656541338920281    0.3424842862407829    0.4310101883472463
    0.5452319638142330    0.5469304863471927    0.4353428051209554
    0.6406163565650392    0.5637453910573850    0.4264390087854799
    0.5392682503171664    0.4043166963443413    0.4181174292868213
    0.6079649735919112    0.4710996681640761    0.4163437136589141
    0.5010931883773987    0.6388626105709369    0.4184637565823982
    0.4233981930635310    0.5963899929379396    0.3853219290284980
    0.3875268317054142    0.3558565637958778    0.3775672143738559
    0.3472941627351911    0.5397418730150449    0.3655784592508088
    0.4581647057973296    0.4160948953723498    0.3668779480992889
    0.3636918687804446    0.4466690881791292    0.3674651692668801
    0.5834368774423500    0.6219932571022084    0.3731218168620640
    0.5066435904935964    0.5712635300220362    0.3462935447455828
    0.5286062859293413    0.4769318905335710    0.3569458726745552
    0.4366023720599366    0.5082332001513064    0.3524640456101333
    0.6002326920072644    0.5339095625866506    0.3442029737208446
