Au43 rank 17
1.0
   30.1443758693753381    0.0000000000000000    0.0000000000000000
    0.0000000000000000   29.4608221865615008    0.0000000000000000
    0.0000000000000000    0.0000000000000000   29.0205358009026000
  Au
  43
Direct
    0.3514733321857782    0.6068761663704879    0.6547528007773545
    0.4419701727129668    0.5916711845182254    0.6511690648753348
    0.3846776149073383    0.5194798224281909    0.6445272950703562
    0.4759659719633947    0.5043444161786049    0.6440907956829974
    0.5289971560572622    0.5816984660027784    0.6236300193362866
    0.5058959570938757    0.4193524615982944    0.6215789685011002
    0.5641335815880514    0.4945246942372590    0.6205872590438929
    0.4156523571892065    0.4403722501253311    0.6084647479501833
    0.4783883550952615    0.6629279762198763    0.6012877049014436
    0.3316408191533833    0.4714599845430521    0.5838922037125637
    0.5342465310965508    0.3391376506997157    0.5806228303759031
    0.3931783278205221    0.6370720197376473    0.5762246435601552
    0.5910481956232403    0.4128322378979301    0.5824961706427776
    0.3372807278190726    0.5637019147370825    0.5709605745619847
    0.6484390859753488    0.4853586424148701    0.5785037560085500
    0.5981235770840131    0.5618525463502451    0.5639879178082366
    0.4591633743761278    0.5670133455101527    0.5557755635751421
    0.4540114048546803    0.3756107699278115    0.5518222626709625
    0.4872737910936435    0.4776946785642262    0.5472036606495098
    0.5375370832218299    0.6300021793854681    0.5398567725877031
    0.3793120867047782    0.4207781799880045    0.5219340496046538
    0.5343012944899591    0.3983770380634273    0.5067054865259673
    0.4521442674921756    0.6524347119152408    0.5053636033865537
    0.3416797210381359    0.5075845068163262    0.4963943259325194
    0.3774704649504158    0.5958624393927044    0.4911082318842354
    0.5984766030290202    0.4650462356221983    0.5015830073764933
    0.6642475484691710    0.5351230590483237    0.5002919808684099
    0.4378720255349963    0.5184847030374006    0.4786746549668428
    0.5272687708148029    0.5431492487745684    0.4907504439312156
    0.6028099090116236    0.6076484780624568    0.4794054307061416
    0.4540374805881194    0.4173984873043123    0.4641677253185416
    0.5201041505024692    0.6348528464222046    0.4445773286225848
    0.5304644647186956    0.4607269806806106    0.4365688298136041
    0.3729763259478696    0.4481905745525086    0.4312953620662614
    0.6004651436090377    0.5225987651991882    0.4274636647451776
    0.4331927555843900    0.6180621524442725    0.4191401344420963
    0.6685825412371296    0.5853399589020792    0.4198977676434534
    0.3752888541557524    0.5424627822693172    0.4120573911765122
    0.4512011802065858    0.4776124947477122    0.3896874465857235
    0.5024907344874352    0.6243079289395308    0.3520912321107080
    0.4370860204962986    0.5595645288501296    0.3452731924326836
    0.5874730785677317    0.6075090124569305    0.3817046964961117
    0.5215074402610759    0.5376247459685969    0.3824342032612018
