Au43 rank 10
1.0
   29.2460792478208731    0.0000000000000000    0.0000000000000000
    0.0000000000000000   28.4964238524184168    0.0000000000000000
    0.0000000000000000    0.0000000000000000   32.3173748854806249
  Au
  43
Direct
    0.5613464323226238    0.4367551547214127    0.6901827830631005
    0.5401148890610364    0.5241541675561651    0.6624025664751533
    0.4809203201863713    0.4502413647727276    0.6467622002746132
    0.6040634541927113    0.4705624770401016    0.6185218511919093
    0.4576215471684582    0.5367553869813659    0.6156797294717021
    0.5171016789299234    0.6088872109436562    0.6350788800250755
    0.5937388859604501    0.5632108590878714    0.5986430359654700
    0.5520224076116720    0.3889717018196693    0.6178411444080201
    0.4681119088328540    0.6126688322454915    0.5624664799279486
    0.4236806703392174    0.4558298164567147    0.5806474996884499
    0.4613742253152296    0.3689364392165939    0.6047692749971726
    0.5602042538827787    0.6471308249978857    0.5689516671345223
    0.6329822881409842    0.5024024638207176    0.5435702464075060
    0.4091488347687205    0.5404911571050690    0.5414290116532430
    0.6081872747759924    0.4069192607114840    0.5531642577782885
    0.5219029756972864    0.6334810170381051    0.4932933645697777
    0.4344999557781180    0.3812351893250151    0.5252017215962661
    0.6026849922855183    0.5874451282386586    0.5145063081428967
    0.5256275661995987    0.3612356630641616    0.5403050212811328
    0.3814718723168468    0.4574741451446306    0.5053253070743664
    0.4921621063817284    0.3546354113025620    0.4612730778792661
    0.6574341874481843    0.4357395649199682    0.4872476388071174
    0.4306756145819131    0.6102700367870489    0.4852774601663555
    0.5817178355905054    0.3793166392312025    0.4733001128508810
    0.4054932779775511    0.3897569571068329    0.4462493584886932
    0.3719339609025976    0.5397482853412410    0.4628203965784374
    0.6285367147106274    0.5206635748914437    0.4577237002727242
    0.3413857010087734    0.4571512713334267    0.4276815109097512
    0.4560977151818868    0.3516552796165409    0.3824203005389394
    0.5761850823701905    0.5945940117482630    0.4324342692136481
    0.6174660834548458    0.4375644599297256    0.4122108622960099
    0.5456118310269770    0.3784684314779991    0.3936562104683956
    0.4870759485084254    0.6217828189252448    0.4165255858347384
    0.3945246802858752    0.6087581014405786    0.4063900306348588
    0.4006118905619069    0.4266867757771732    0.3666243272556761
    0.3792405376635608    0.5213045777423644    0.3754485825746696
    0.5953488867282259    0.5226834448783523    0.3774093466446266
    0.4891171330757585    0.4200471840023182    0.3317403454699818
    0.4528734389240233    0.5728842149609503    0.3475295083401519
    0.5799720373210452    0.4399416859137529    0.3349596121561339
    0.5432553155304581    0.5973727533255042    0.3518935083014837
    0.5213734052883336    0.5118177041898579    0.3198256150191699
    0.4298593740524078    0.4899892907722811    0.3089625819368657
