Au
 1.0000000000000000
    28.7245337190000001    0.0000000000000000    0.0000000000000000
     0.0000000000000000   31.8169924349999995    0.0000000000000000
     0.0000000000000000    0.0000000000000000   29.4203509690000011
 Au 
  43
Cartesian
 14.9194200000000006 14.5409799999999994 17.9877700000000011
 14.5203299999999995 17.0785799999999988 18.7121800000000000
 12.3341999999999992 18.4563999999999986 17.6300899999999992
 12.4405099999999997 15.6677300000000006 17.4768700000000017
 15.8643000000000001 19.0991700000000009 17.3104200000000006
 16.7170699999999997 16.4475400000000000 17.0910699999999984
 14.1074800000000007 19.6805400000000006 19.3823200000000000
 17.1498199999999983 13.7803900000000006 16.5758000000000010
 13.6806699999999992 20.8269799999999989 16.9607400000000013
 15.3607300000000002 11.8767099999999992 17.5011000000000010
 12.8851800000000001 13.0025099999999991 16.9630900000000011
 17.3074499999999993 18.3186900000000001 15.1586200000000009
 10.9080300000000001 17.1532799999999988 15.7360699999999998
 15.7488100000000006 20.6844099999999997 15.0819200000000002
 13.9267699999999994 10.8169599999999999 15.4380900000000008
 11.4957399999999996 19.9126100000000008 15.4685299999999994
 16.6941699999999997 11.3223199999999995 15.1874800000000008
 11.0154099999999993 14.4088999999999992 15.4919200000000004
 18.7220399999999998 13.0099800000000005 14.4786000000000001
 18.1284199999999984 15.7042000000000002 14.8506999999999998
 11.3466699999999996 11.6662099999999995 15.1439299999999992
 13.2745300000000004 21.8383600000000015 14.5167599999999997
 17.2657899999999991 19.9432800000000015 12.9375999999999998
  9.9890200000000000 18.6182599999999994 13.5966799999999992
 15.3207599999999999  9.9831099999999999 13.2307900000000007
 10.4948599999999992 15.9302499999999991 13.2712500000000002
 17.2572900000000011 11.7931000000000008 12.5075500000000002
 14.7160200000000003 20.7817700000000016 12.4677100000000003
 12.7777899999999995 10.9746500000000005 12.9112799999999996
 17.6871299999999998 17.2392600000000016 12.6225199999999997
 11.0869099999999996 13.2837599999999991 12.9489000000000001
 18.0152500000000018 14.5452800000000000 12.3228600000000004
 11.9602199999999996 20.2817399999999992 12.7170900000000007
 15.7954299999999996 18.5397600000000011 11.0931599999999992
 11.5124099999999991 17.7614899999999984 11.4783700000000000
 14.8322000000000003 11.6021900000000002 11.0915800000000004
 11.8114000000000008 15.0898599999999998 10.9768399999999993
 16.3709899999999990 15.9203399999999995 10.5645699999999998
 13.3218700000000005 19.5619100000000010 10.4509799999999995
 16.8459700000000012 13.2261500000000005 10.2295999999999996
 12.2607199999999992 12.3908000000000005 10.6428600000000007
 13.7948199999999996 16.8490199999999994 10.2099399999999996
 14.2683300000000006 14.1682500000000005 10.0273699999999995
