Au43 rank 16
1.0
   30.8571943740647825    0.0000000000000000    0.0000000000000000
    0.0000000000000000   31.0571580516321504    0.0000000000000000
    0.0000000000000000    0.0000000000000000   27.4770045929099425
  Au
  43
Direct
    0.4752786275516874    0.5742658177215078    0.6302852367376299
    0.5530824887834495    0.5317778457180775    0.6319034614900494
    0.4754460643685551    0.4892297605935369    0.6059304916582695
    0.5531505884578567    0.4442130067045329    0.6085727176906356
    0.6294236450571453    0.4875484372652200    0.6315848556939552
    0.4796028595212425    0.4048132090964383    0.5736949731023683
    0.5477937480393782    0.6098076082995808    0.5845929955493115
    0.4215631721216470    0.5480499163974523    0.5584035752432929
    0.6334485464074432    0.4054588531804026    0.5931723308430508
    0.4199379998204684    0.4613986687852878    0.5319876773260297
    0.5604086742939544    0.3598872932173098    0.5680090865143079
    0.4641674486635231    0.6278653407865729    0.5514533991273391
    0.6201355733596136    0.5578780308208748    0.5709578563297586
    0.4829480949504579    0.3208957781034984    0.5414603640004895
    0.5532062204552279    0.5493557500877779    0.4939399821254152
    0.5349817377817312    0.6774124893353454    0.5226301872941101
    0.6556302816569557    0.4779680260711235    0.5369627673607158
    0.3727229250690801    0.5216256657939338    0.4810751692880865
    0.4272366731443359    0.3768827706422972    0.4949088473586049
    0.6035441907039959    0.6232280300684971    0.5034208505790106
    0.5182248722042242    0.4716497124093204    0.5130744496100986
    0.4053419678413682    0.6049145785666119    0.4804998396758788
    0.5987184533430561    0.4160250312348873    0.5007499999375292
    0.5536623867649851    0.4445985884627518    0.4181748861192341
    0.5185337308861715    0.3816218643752720    0.4787995038513808
    0.4650414874631857    0.6691297575163047    0.4624565847973349
    0.6528488087907891    0.5507944502239993    0.4800269999366120
    0.6745269376486855    0.5344538046394577    0.3833639978932286
    0.6389350416189634    0.4697860392940914    0.4376074836992932
    0.4693088741002688    0.5352217590785563    0.4682517854565671
    0.3747898855329760    0.4331745505812423    0.4486713040756012
    0.6157528276947433    0.5977289687728015    0.4053617221308580
    0.5522783294076025    0.6548007976517205    0.4283645410688443
    0.3995036372956606    0.6524457259682331    0.3942877661242413
    0.4644001588312199    0.4363975846350807    0.4275641026699590
    0.3234613405878503    0.4931679623857455    0.4038495100611314
    0.5871809133872867    0.5156591164780788    0.3719134575817231
    0.5359231271789525    0.5877224790418025    0.3614880663671513
    0.4843244910529487    0.6601836514411050    0.3652381157573997
    0.4120113511235943    0.4985378251865277    0.3879011602681486
    0.5007636338926514    0.5049200380968812    0.3741106880500513
    0.3592260102020867    0.5742489281558049    0.3972852063592335
    0.4480237030349951    0.5782675401992955    0.3738518213765751
