Au43 rank 19
1.0
   29.5036397661474581    0.0000000000000000    0.0000000000000000
    0.0000000000000000   28.4196791398010902    0.0000000000000000
    0.0000000000000000    0.0000000000000000   30.4271688398453435
  Au
  43
Direct
    0.5417481654177817    0.6039732147309620    0.6719717035101269
    0.5713400871357431    0.5140114341911441    0.6604999872130980
    0.4788467776903259    0.5312962420970062    0.6554915740593453
    0.4546713143622040    0.6257192894815992    0.6504999706179583
    0.5089755913074090    0.4419980026162177    0.6461481481598110
    0.5443657978282437    0.3528408974801365    0.6311601364992554
    0.3687162900454358    0.6499620244857459    0.6229651496932959
    0.6012484931257720    0.4292313911995700    0.6259446841047041
    0.3968612491339349    0.5568089562079743    0.6142379726339824
    0.6531461234821050    0.5077139961383649    0.6174743036055910
    0.4317268412169730    0.4694337659565957    0.5983873980820368
    0.6076987126393777    0.5918553347803263    0.6090863903262400
    0.4752212702331937    0.3859232129106694    0.5780822036212544
    0.5276939759086129    0.6380131873894234    0.5870736230993480
    0.4369733862638875    0.6453799410438976    0.5611405424083790
    0.5713848744798928    0.3843734401086311    0.5497258221136374
    0.3503102765091053    0.6035643947781726    0.5457991557018530
    0.3764691278506050    0.5099774135973725    0.5355320004224319
    0.5674517122579961    0.5403645037537868    0.5362131122197730
    0.5120866592930240    0.4658018347227373    0.5345153248584384
    0.4763204878939128    0.5520428780454042    0.5600614410520812
    0.6291390714639166    0.4605271236432033    0.5409460177560036
    0.4249659650976632    0.4298458060037258    0.5117292127228527
    0.6625501812022601    0.5545604203833914    0.5395106526395155
    0.5964509714379166    0.6337085859817012    0.5239359099968961
    0.5048283686275423    0.6394004342454703    0.4992511085477310
    0.5016278298091786    0.3704155776066120    0.4901596979791797
    0.4171535586350358    0.6082903807157125    0.4794809533400912
    0.3367765171130517    0.5611751917888936    0.4652698886605535
    0.5762265820469908    0.4301284051127291    0.4690973508295661
    0.4988497752781172    0.5406133859056506    0.4717531312935994
    0.4068678007358384    0.4991213751462876    0.4493537900783282
    0.5596205402229594    0.4965257354298178    0.4048058882806176
    0.6254418999949095    0.5623494057039458    0.3850016252162741
    0.6328613813325319    0.5070035346680662    0.4615229469068393
    0.3907227521030410    0.5767702821010394    0.3936255403488458
    0.6583286421496269    0.6005507635961063    0.4613821231942634
    0.4852175903729611    0.4454585966417784    0.4383998997080114
    0.5684143856375411    0.6167405825074265    0.4367089800072348
    0.4789026865294659    0.6175514917924630    0.4122214377938520
    0.4699124528487676    0.5189053136058214    0.3820306543499651
    0.5415699544488145    0.5782033701464653    0.3516642824271043
    0.4524512878185106    0.5933723212177081    0.3278239204537276
