Au43 rank 15
1.0
   28.4710162385367269    0.0000000000000000    0.0000000000000000
    0.0000000000000000   31.0268800547260355    0.0000000000000000
    0.0000000000000000    0.0000000000000000   30.8084240592996963
  Au
  43
Direct
    0.4550602348271969    0.4726302320107407    0.6746203388297012
    0.5037411762240052    0.5454525739471239    0.6507119008899040
    0.4862612684500162    0.3973979753348859    0.6390774895184712
    0.5497158246646632    0.4672008094024032    0.6598448957906492
    0.5518156603238624    0.6069402528294435    0.6020824966131224
    0.6006902582239058    0.5357193915963747    0.6316160729408531
    0.4121384247977911    0.5274386295914160    0.6175982071046886
    0.5822541610918457    0.3876023409420191    0.6377197021788926
    0.6135475106950748    0.4575459050113035    0.5903815733277640
    0.4568913465920798    0.6045881987195045    0.5974846086877070
    0.4108553383985191    0.4389223465750254    0.6012892787194080
    0.6492033040251959    0.6029177869743947    0.5949146025274118
    0.5274113049961754    0.3264346573894804    0.5977380010871639
    0.5029074775592183    0.5268918504505377    0.5624095581449154
    0.3504808556753399    0.4921959140175663    0.5566197050175531
    0.4578630786625922    0.3753377142451624    0.5563634009493436
    0.3817813263491341    0.5752483496289971    0.5476040139663639
    0.5727043353365030    0.3894157534629701    0.5476477522425739
    0.4147651867685983    0.6569790497198051    0.5363140101980510
    0.6312001041853987    0.5314648168389310    0.5436347079242595
    0.5966114290006221    0.6129975606767333    0.5213133116567238
    0.5108900274670021    0.6539729946099875    0.5365541821127708
    0.4004093843037837    0.4337442283480589    0.5106081531656604
    0.5004221326044689    0.4523264554705752    0.5163258126756386
    0.5214233274295487    0.3217463540930977    0.5094745338983682
    0.6008598576361712    0.4618716285327548    0.4999664619109316
    0.3841737167459271    0.5162579124108038    0.4775462367982735
    0.4855355895925799    0.5314569956648163    0.4766424815186967
    0.4572625445863201    0.3781073183977465    0.4663325092704327
    0.4146864978457604    0.6004786737568671    0.4660544322417610
    0.5874956440744429    0.5429085118472016    0.4649036746114059
    0.4619324072801366    0.6790534043928946    0.4612608394368949
    0.5585196652769984    0.3922744747432018    0.4596904071986487
    0.5325762291001631    0.6174436874633519    0.4563582113854622
    0.4352730992155378    0.4562465390176022    0.4291104442009199
    0.5144097381823017    0.3229427780557790    0.4203281049590558
    0.5492191159642763    0.4721960259563357    0.4224859604311100
    0.4259731514166306    0.5412398675100546    0.4003605316553052
    0.5287734735987782    0.5544738370430283    0.3931811113317840
    0.4653995386400906    0.6255321555882570    0.3902502323651102
    0.4995940347088944    0.4028079858325905    0.3848067130788910
    0.4832135381244748    0.4826821586502819    0.3534070874366382
    0.4678095715757044    0.5653149554242363    0.3235049262718127
