Au43 rank 1
1.0
   30.0877523231271695    0.0000000000000000    0.0000000000000000
    0.0000000000000000   30.1201119991631643    0.0000000000000000
    0.0000000000000000    0.0000000000000000   30.6534487777878653
  Au
  43
Direct
    0.5793194494053071    0.4698182624949394    0.6724275124678680
    0.4886515086020746    0.4682620030970565    0.6609527624822098
    0.5415602625188224    0.3916485470893060    0.6471918803987750
    0.4511052743426706    0.3866452910567847    0.6446455184810966
    0.5370807235030608    0.5447861686565134    0.6417077369757763
    0.4456503425860840    0.5435489071541733    0.6349907963875066
    0.4094670350774367    0.4620725287335405    0.6141052308022307
    0.4025423068519076    0.6195805616298082    0.6071730330182554
    0.6231749247388431    0.4200467925785286    0.6119802037092275
    0.4938904900938733    0.6153535952374148    0.6048143528310773
    0.6143750545749852    0.5142262535530200    0.6025955657791715
    0.5888019313289091    0.3377832103398918    0.5928216976337938
    0.4978263728651571    0.3387303606657683    0.5848151664486406
    0.3741224924914379    0.5376534683552713    0.5787814623459069
    0.5763510552601318    0.5910024737819420    0.5735222970006653
    0.4208434659449818    0.3887342307899924    0.5605515782643070
    0.6673474195153845    0.4654576653860935    0.5479284519377779
    0.5355620518054771    0.6668564719781309    0.5432648033398013
    0.4451056969876129    0.6639624523538266    0.5413200735789077
    0.3753642969563251    0.4606904879138898    0.5299860718681201
    0.3680242391777254    0.6140583722382370    0.5246778324627929
    0.6290197763052311    0.3857843444095933    0.5279050315403545
    0.6214378405934227    0.5384857538162027    0.5153254296216355
    0.5516494260163098    0.3356561191495882    0.5111528934901081
    0.4612785064349700    0.3318921456577905    0.5032400868053044
    0.3322874552902355    0.5350474320072018    0.4992575739416002
    0.5693008351519618    0.6067415205708093    0.4843395429834614
    0.4232630473906355    0.4100943410859250    0.4723191353553036
    0.6248041307425934    0.4596427579021787    0.4693784828838382
    0.4952019922616015    0.6607195714136411    0.4637462263270690
    0.4029115441854688    0.6688848986023933    0.4630086611550423
    0.3911876371974056    0.4912777510101580    0.4457145003243604
    0.5975717610244567    0.3753412707885054    0.4450677059381851
    0.5058016863717320    0.3825944724199603    0.4436419164581354
    0.3767470272930203    0.5838055282438640    0.4382066157025484
    0.5851734495145551    0.5332038816654449    0.4331810308441372
    0.5578740736695151    0.4488559468043155    0.4091892460293833
    0.4660593280823765    0.4559511845065352    0.4071513822349505
    0.5308257513459026    0.6025258138874343    0.4047089539666610
    0.4427368167987100    0.6314013624591027    0.3940548809369155
    0.5223307823996958    0.5180679789988963    0.3673065354792704
    0.4331867384707402    0.5392072476198297    0.3835412343640769
    0.4848183237151375    0.5895895008124796    0.3273452198339349
