Au
 1.0000000000000000
    29.1427715810000016    0.0000000000000000    0.0000000000000000
     0.0000000000000000   30.2319160479999987    0.0000000000000000
     0.0000000000000000    0.0000000000000000   29.9058058369999991
 Au 
  43
Cartesian
 14.0807099999999998 13.8196800000000000 19.9485199999999985
 16.5315000000000012 12.7472200000000004 19.3263800000000003
 11.8891700000000000 12.2502800000000001 19.5641099999999994
 16.1561799999999991 15.4446499999999993 18.9378400000000013
 13.7528000000000006 16.5033999999999992 19.7319500000000012
 15.1600000000000001 17.7407800000000009 17.7352899999999991
 14.2784399999999998 11.3708299999999998 18.6007299999999987
 11.6697699999999998 14.9527300000000007 18.9378400000000013
 13.7868200000000005 18.7102499999999985 15.5588800000000003
 11.9791600000000003 11.2719600000000000 16.9298199999999994
 17.7931500000000007 14.0096799999999995 17.1999400000000016
 16.4845100000000002 11.5963799999999999 16.8395900000000012
 12.4414400000000001 17.1709600000000009 17.3951400000000014
 17.6668200000000013 16.7467399999999991 17.0687199999999990
 10.0365300000000008 13.0568299999999997 17.7345000000000006
 14.2753099999999993 10.0236499999999999 16.2356400000000001
 16.5473800000000004 18.8600199999999987 15.6749700000000001
 10.4970900000000000 15.4457100000000001 16.5057699999999983
 10.7656399999999994 12.8987200000000009 15.1010000000000009
 17.9712099999999992 12.6893600000000006 14.7969399999999993
 18.8949600000000011 15.2781900000000004 15.0411300000000008
 19.0921300000000009 18.0262700000000002 15.1005199999999995
 11.5920799999999993 17.2990500000000011 14.7536799999999992
 10.0555199999999996 15.1852800000000006 13.8374299999999995
 15.7387800000000002 11.1402999999999999 14.2279000000000000
 12.9926999999999992 11.5316600000000005 14.2912499999999998
 15.1974099999999996 20.1944899999999983 13.6909299999999998
 12.0779800000000002 13.6058000000000003 12.7239299999999993
 13.1698400000000007 18.5528699999999986 12.8650800000000007
 17.6443699999999986 19.1276200000000003 13.0689299999999999
 19.0614600000000003 14.0539699999999996 12.6263299999999994
 11.8072400000000002 16.2931300000000014 12.1342300000000005
 19.1733000000000011 16.7841099999999983 12.6767900000000004
 17.2638099999999994 11.9396400000000007 12.1944599999999994
 14.5008199999999992 12.4796700000000005 12.1671099999999992
 13.7894500000000004 14.8187999999999995 10.8946799999999993
 15.5107700000000008 18.9218399999999995 11.2812599999999996
 16.2376600000000018 13.7922200000000004 10.3877799999999993
 13.4000599999999999 17.5154800000000002 10.2995199999999993
 18.8444099999999999 12.8210899999999999 10.1623500000000000
 18.0252300000000005 18.1406300000000016 10.5564699999999991
 18.4712800000000001 15.5039200000000008 10.2811599999999999
 15.8784399999999994 16.4588199999999993  9.9324300000000001
