Au43 rank 2
1.0
   31.1885744333588946    0.0000000000000000    0.0000000000000000
    0.0000000000000000   30.7072257446778565    0.0000000000000000
    0.0000000000000000    0.0000000000000000   28.1745642810159111
  Au
  43
Direct
    0.5152228390834060    0.5401618111226293    0.6257673436641830
    0.5838679799110916    0.4854011116594941    0.6428830570586835
    0.5997031362169549    0.5656995361369398    0.6065688875775870
    0.5055853881761935    0.4503497920514885    0.6293000196596551
    0.4348121868787963    0.5015923724534360    0.6195193528874294
    0.4274353009137704    0.4132335490628250    0.6100747540556800
    0.4300273230121313    0.3254765063740680    0.5852373811925470
    0.3672540453772993    0.5525873409954561    0.5912751326994998
    0.5042355148454271    0.3720409952760834    0.5793356453434054
    0.4498602118720559    0.5849807805917461    0.5846767358303789
    0.3611541976780739    0.4644009707013285    0.5788111088456005
    0.5324653648746520    0.6154776482537772    0.5751211352299647
    0.5737310480528243    0.4239643686799771    0.5715567560115339
    0.6359725115856983    0.4874823596041503    0.5648044868795692
    0.6765343365711112    0.5655290013573762    0.5591736842289395
    0.3730913097843863    0.3797557141354740    0.5413967330630700
    0.6164288974251938    0.6280556741652820    0.5390022023531138
    0.3348525915270472    0.5221841072311918    0.5076163237345153
    0.3936364379541934    0.5932033446729132    0.5095828175333744
    0.4527654782549372    0.3617379899652062    0.4990048987393991
    0.4704545187036678    0.6353014192293693    0.5066362650416349
    0.3199324807331166    0.4352819404906438    0.4970934301248543
    0.5496073200232221    0.6731687413365038    0.5032371316522039
    0.5361327808374113    0.3944106249509022    0.4897774498258624
    0.6116673783758767    0.4413184077314982    0.4856014127068885
    0.6796599760848253    0.6034663086952714    0.4720320153478180
    0.6679939107918396    0.5133183230852431    0.4783207598381072
    0.3881010668666160    0.3983461721568193    0.4464988213775877
    0.6053467166681565    0.6382163625106599    0.4395715453455131
    0.4750296217452750    0.4061749231156824    0.4199898584107690
    0.3539538778396414    0.5686047291549290    0.4270048394762526
    0.3524840048492706    0.4796545570529568    0.4217581355583106
    0.4350915734187153    0.6044283688935557    0.4233574974351245
    0.5163431615965924    0.6377368769739983    0.4213512927714071
    0.5567830918807923    0.4371957154322090    0.4076020550452837
    0.6403289297969916    0.5613923643733076    0.3990388494110866
    0.6377802915084857    0.4725395473379230    0.3993609883372339
    0.4178053631369576    0.5278224343442229    0.3757198944917228
    0.4104558482476953    0.4393627805140743    0.3641470975520819
    0.4902195231728241    0.4774093123351604    0.3612390010231602
    0.4950134551337638    0.5676272225875129    0.3632123342361314
    0.5687448642617068    0.5164578532378039    0.3616371144708244
    0.5746982035916788    0.6052786195787453    0.3562523666649003
