Au43 rank 9
1.0
   29.2951204146169317    0.0000000000000000    0.0000000000000000
    0.0000000000000000   30.2837769443369353    0.0000000000000000
    0.0000000000000000    0.0000000000000000   29.0525061679376648
  Au
  43
Direct
    0.4258707973366279    0.5497321180974950    0.6496989649533635
    0.4898510420902401    0.4775675286737663    0.6470397885810074
    0.4570408809031070    0.6363433481663949    0.6422968541064262
    0.3961576545865521    0.4639238737103445    0.6516147970381561
    0.5175987409599114    0.5663265577847781    0.6429095095787203
    0.5399183096212092    0.4117101902426478    0.6050051785702677
    0.4488490387903045    0.3949588462467419    0.6249537855226505
    0.5728232350214463    0.4988320258918604    0.6082125097636820
    0.3750633350748386    0.6096982145440951    0.6019882231069118
    0.5987407826637071    0.5879459391115048    0.5993977462209289
    0.5018272974433353    0.3302064483391476    0.5821654023459933
    0.3545308252247910    0.5215459566468049    0.5884377676573523
    0.3470292693772669    0.6706136442552539    0.5380818772512868
    0.6153689096471158    0.4392744000874709    0.5525610513112247
    0.5252158998786965    0.6406097537180346    0.5750731273999955
    0.5193451033723770    0.5533005558232936    0.5435152584768457
    0.4176929504952115    0.3534947107728806    0.5454940776092746
    0.3777404731851777    0.4325692966465005    0.5651013210417148
    0.5810952294504500    0.3521809136988646    0.5398640335064062
    0.4439887599686537    0.5021341579435674    0.5619551892476221
    0.6298614716710673    0.5280563024981271    0.5362478966971361
    0.4396279083327843    0.6655759848002170    0.5526447976379502
    0.5213581991602591    0.4643968423468162    0.5229513754253746
    0.6585127874743738    0.3814980792339482    0.4946245472586727
    0.4964856815238429    0.3751861580219391    0.4983560953643745
    0.5859504640363332    0.6084966476359913    0.5049119037387736
    0.3435252693019875    0.5810599464903424    0.5171270623567670
    0.4143523909668405    0.4180914427867728    0.4777280730771628
    0.3673904598220621    0.4961285320264125    0.4955306920214096
    0.6512175943684673    0.4675680777551907    0.4647823293867340
    0.4962974620397120    0.6334195636120439    0.4831465306054548
    0.5757809243550122    0.4103681272068379    0.4617974672311044
    0.4665964223723666    0.5259164784191834    0.4721333854871196
    0.4029097984613715    0.6389424735318983    0.4701494429265388
    0.6327143641554241    0.5530669566538907    0.4451564676380748
    0.4928296095540188    0.4399861683972515    0.4296395689556825
    0.5721552841789083    0.4895828617198548    0.4124578469684706
    0.5439157684722755    0.5764320650490119    0.4263145084299316
    0.3666992919179216    0.5621702460360719    0.4278310782165589
    0.4080013499875977    0.4795655535102257    0.4087262935080474
    0.4539677820997944    0.5974645024305978    0.4053665791109336
    0.4908046080654153    0.5163543168590460    0.3747734977423089
    0.4065965248766921    0.5459980531002510    0.3428915255097709
