Au43 rank 3
1.0
   29.1427715809830019    0.0000000000000000    0.0000000000000000
    0.0000000000000000   30.2319160478213220    0.0000000000000000
    0.0000000000000000    0.0000000000000000   29.9058058369814361
  Au
  43
Direct
    0.4832260899631436    0.4571352443240749    0.6670223861832743
    0.5672938948512627    0.4216163717620811    0.6462043975273114
    0.4080174767954988    0.4052661086725299    0.6541715775679083
    0.5543861389398501    0.5108386106290181    0.6332222106907118
    0.4719371534758007    0.5459092619780007    0.6597647595256306
    0.5201967263278607    0.5868349638887375    0.5930169934373737
    0.4899915852793285    0.3761115679143607    0.6219883010314960
    0.4004925308217715    0.4946215315424447    0.6332182397933759
    0.4730529321991070    0.6189534686155608    0.5202781514231688
    0.4110362563641823    0.3728324169935118    0.5661224198387058
    0.6104984235257495    0.4633340762368451    0.5750347347241493
    0.5656767056979319    0.3834456166319830    0.5630729371206897
    0.4268985497496828    0.5679949834154663    0.5816601038815309
    0.6061214322733007    0.5538305537525597    0.5706264679081683
    0.3444073617822381    0.4319273139550371    0.5930464329925036
    0.4898023891278365    0.3314983421407670    0.5429178138146716
    0.5677909292336819    0.6238694808878626    0.5241205032858882
    0.3601527536390419    0.5109583879225081    0.5519466563072579
    0.3694114927889617    0.4266801167122549    0.5049880085350446
    0.6166118966983624    0.4195888566268048    0.4947246689568697
    0.6482119536217076    0.5052786809139016    0.5028052357722732
    0.6550688554597359    0.5961777535728062    0.5048924999429593
    0.3976920324568208    0.5723453137382801    0.4933607623696759
    0.3450457906614100    0.5023019900863309    0.4627228478925498
    0.5400648196735032    0.3683037167086491    0.4757050250571376
    0.4458249792289531    0.3814080337838966    0.4779120303602009
    0.5214536226735146    0.6680989633029019    0.4578450774327282
    0.4144977883695503    0.4501018598604276    0.4255466638308524
    0.4518900853126672    0.6138055970456253    0.4302009777967752
    0.6054491245235915    0.6327814950617122    0.4370203048754384
    0.6538681254808890    0.4648191760788356    0.4220906544841460
    0.4051994712237604    0.5389598093666959    0.4058167409584126
    0.6577974153507820    0.5551442410226144    0.4238513645295546
    0.5924307392578194    0.3946994548084728    0.4076607814498845
    0.4976022447104557    0.4127940224442981    0.4069386280047620
    0.4733201044266250    0.4902498625818576    0.3644964351511265
    0.5322404070812160    0.6260538045323379    0.3772313181284709
    0.5572907584989641    0.4562341667106917    0.3475046565100405
    0.4598770659828375    0.5794252793026641    0.3444801947388617
    0.6466285774341455    0.4240651726988721    0.3397209377944257
    0.6184899502330897    0.6001462699468654    0.3530072765833343
    0.6339159642400110    0.5128989823982018    0.3437005994367781
    0.5449049501285418    0.5444302945570433    0.3323100486275637
