Au43 rank 20
1.0
   29.3262654972360579    0.0000000000000000    0.0000000000000000
    0.0000000000000000   27.8600530573437766    0.0000000000000000
    0.0000000000000000    0.0000000000000000   30.5983207918776756
  Au
  43
Direct
    0.4968054038334095    0.4318688277083616    0.6727097799579695
    0.4897458211712384    0.5248271947425130    0.6412265189319535
    0.5721178628127450    0.4764252977412846    0.6323935215270421
    0.4304419826607777    0.4529427663453255    0.6116728297799398
    0.5699788670443229    0.3776547342944693    0.6481203274624295
    0.6444690678001593    0.4147899430717119    0.6068854605493768
    0.4064875619540614    0.5463430384620398    0.6021137695900385
    0.4786146655472560    0.6115399391337633    0.6004695560526206
    0.5608129274990243    0.5639990004002068    0.5927676425809667
    0.4906389769090195    0.3778821224636840    0.5954377121883668
    0.3903433204614636    0.6408858861061938    0.5829181349980574
    0.6273064487527957    0.5003016385852670    0.5627228915627047
    0.5776473216428908    0.3694777726714855    0.5565982597270684
    0.5320145670569262    0.4585165421743956    0.5468972523795314
    0.3608476889991032    0.4769161275929240    0.5514680215600084
    0.5392676198849214    0.6383680324187647    0.5361818232333739
    0.4157353023773540    0.3921018029590869    0.5412206312581994
    0.6165096854548558    0.5853478790372446    0.5195132141042386
    0.6525878250544547    0.4185899462364530    0.5172202497059775
    0.3759672097371028    0.5724907699981047    0.5185260154288794
    0.4486964292836354    0.6377606648240307    0.5128581026030339
    0.4491542521973920    0.4992293712562076    0.5227160542092828
    0.4987701475525309    0.3631074152322470    0.5064486007287382
    0.5316284941475300    0.5401423033441548    0.4991384940443795
    0.3396060447605513    0.4109518022464559    0.4883518145322502
    0.6463700448392727    0.5048710594538163    0.4727447103325537
    0.5831722830973780    0.3776611955989951    0.4668687238743305
    0.5048664468723559    0.4536471953890379    0.4587144573563907
    0.3684323984344817    0.4988018664591458    0.4602427591430719
    0.5137535798557055    0.6231132071718429    0.4492968904140374
    0.4243315533906469    0.3813326155517875    0.4521214480911815
    0.4362566116112818    0.5662944464539683    0.4469078428892790
    0.5947650756153414    0.5745422210504267    0.4316818056164429
    0.6575856096203594    0.4194422138388819    0.4273060919368842
    0.5077816028725016    0.3611867625269804    0.4154424607597531
    0.5964204078291805    0.4849777842316130    0.3951802474597345
    0.5136195377958445    0.5375290561336769    0.4007851878969061
    0.3590647156723916    0.4238753880681422    0.3997983485877877
    0.4339215821440612    0.4843833528428924    0.3955604907117468
    0.5916756042570162    0.3857830428359704    0.3736821523594279
    0.5156274631165237    0.4485238875251736    0.3616089813859514
    0.4352628205942613    0.3906016492561246    0.3590061127198000
    0.5168443220455595    0.3570943952924678    0.3261930190932875
