Au43 rank 14
1.0
   29.1038970632183158    0.0000000000000000    0.0000000000000000
    0.0000000000000000   29.2990127071875115    0.0000000000000000
    0.0000000000000000    0.0000000000000000   30.1054616827275936
  Au
  43
Direct
    0.3808749853917363    0.4500276230334764    0.6676916370199029
    0.4649773024707167    0.4857667864832798    0.6423111820361730
    0.4414723838967517    0.3935723938709379    0.6248896563806502
    0.3801723618541768    0.5246387589923028    0.6105956371573361
    0.4630860319189853    0.5741788529253083    0.6046035331159182
    0.5286117755569506    0.4284085012835643    0.5994712120143151
    0.5411339346771580    0.5208866713829780    0.6004563662686752
    0.3673034277540180    0.4354056802853061    0.5777485833192506
    0.5008114288554084    0.3416183558620908    0.5763776450589142
    0.4595736922518601    0.6541567624559000    0.5557766092856611
    0.3877539991950409    0.5934540780254502    0.5483842342202068
    0.5400846694692816    0.6062378390510524    0.5602579792907055
    0.4504615362676768    0.4902397237606527    0.5503643454353011
    0.6202217120843234    0.5579355854506016    0.5637229482367626
    0.4152683609826174    0.3633701601915858    0.5411211806068988
    0.6016058847180914    0.4653592972895915    0.5534084418657552
    0.3530667406620621    0.5098265732862235    0.5212290381750194
    0.5702967707746213    0.3800898402159331    0.5292772326135817
    0.3580607199804796    0.4216643362146636    0.4882826080814164
    0.5237442806726375    0.4940488945955970    0.4957805631928086
    0.4087779199866319    0.6606206600055922    0.4819001665263733
    0.4555829961343710    0.4318566957605693    0.4770823338663283
    0.4940271515432760    0.3432445067386361    0.4851258386661044
    0.4990011417098421    0.6213176996252472    0.4775992091896180
    0.6567072387492219    0.5147670644742471    0.4913702928741094
    0.3526954893229715    0.5834087505095736    0.4635993082803399
    0.5799499446979348    0.5727244881634319    0.4803894409456696
    0.4358096560705237    0.5241730076152870    0.4646667699889672
    0.6365461396800387    0.4239126123635339    0.4779727256645634
    0.4027773929246680    0.3438181795190732    0.4531400171390902
    0.3456896309251646    0.4944258072402252    0.4301058399626426
    0.5526954635022351    0.4027548944593414    0.4406876324218335
    0.3569190705211739    0.6568109421438370    0.4056271032283452
    0.5901205721583415    0.4919619017242248    0.4284153609342194
    0.4368374124076926    0.6062538084205912    0.4099233652565171
    0.3763532627161416    0.4120773037489454    0.3978661424524593
    0.4710783798387881    0.3786313287261988    0.3990538714977162
    0.5121909701871799    0.4645027739267220    0.3831760073654033
    0.3539111051548519    0.5702277330410768    0.3705916479270017
    0.5162754136576286    0.5528725858345300    0.4149323511193957
    0.4394018925333362    0.5224118006894262    0.3673920499074477
    0.4382629707175148    0.4328092136806770    0.3325450089776518
    0.3580673169247954    0.4840379860509749    0.3384918397611235
