Au43 rank 7
1.0
   29.3708798691873412    0.0000000000000000    0.0000000000000000
    0.0000000000000000   30.3607238237348085    0.0000000000000000
    0.0000000000000000    0.0000000000000000   30.3103063994740651
  Au
  43
Direct
    0.4940289683196533    0.6000375709226051    0.6728163541899486
    0.4830704278603546    0.5105471899988697    0.6563063303716750
    0.5615140587061728    0.4624098247525207    0.6548718095003001
    0.5691081792726111    0.5518195154448201    0.6525041975759160
    0.4160251452997155    0.5689014435548199    0.6360285709713244
    0.4107675914413132    0.4817485314996269    0.6068084992544603
    0.4894270923462313    0.4330768143211500    0.6052598016351003
    0.5533240088362527    0.6323681803119768    0.6103895511955848
    0.3409187923565573    0.5428473598853600    0.5895593535340373
    0.6337203904042951    0.5881336572403171    0.5982439451390401
    0.6200365172742255    0.4986417617859425    0.5939469109108266
    0.4603967713916028    0.6468417458809108    0.6023745958618695
    0.5781879839859179    0.4184896192884003    0.5772227391007273
    0.4225575700076090    0.4129647656113284    0.5467138313196668
    0.3752442979230565    0.6256149527107492    0.5755635009788433
    0.5073415010932009    0.3745115200582916    0.5377525873434643
    0.5183016240460059    0.6740780442235420    0.5374687504492626
    0.5914064196637872    0.6203839715354991    0.5245671245238469
    0.6412452284012281    0.4533183943404279    0.5195180586688762
    0.6438598030724914    0.5447660014739030    0.5186582561842343
    0.3562560468916622    0.4775414000025555    0.5316529549181499
    0.4411598255810510    0.6303979688329840    0.5115705813913419
    0.5941305223538333    0.3764099901237992    0.4987159656459129
    0.3669684338337322    0.4129483422643809    0.4733359657836139
    0.4455736277059363    0.3665658564250652    0.4686485841891305
    0.3794837659131080    0.5630145119559977    0.5069976617619898
    0.5270379064011461    0.3265153940523784    0.4620893391043367
    0.5201465774984586    0.6197595872006936    0.4639021957345639
    0.6018414590274225    0.5792722312582144    0.4450561612816194
    0.6585330637083899    0.4098958803273338    0.4418227399601406
    0.6487673312558397    0.4998685955699196    0.4406128025420568
    0.3906997967089874    0.4971833111028345    0.4461640215198494
    0.4443224783023129    0.5709981256591304    0.4417005407052704
    0.5858150643001669    0.3667711638663763    0.4060098755941677
    0.4180819290793194    0.4220122869318306    0.3999342002299284
    0.4912572068151365    0.3653515825647650    0.3876120903570497
    0.5243648443712962    0.5615488589285276    0.3952937556478473
    0.4528661123261373    0.5057627090269518    0.3785588029116078
    0.4680362216514458    0.4317662627280832    0.3265020209313517
    0.6170814752074758    0.4476334127948891    0.3703160592600154
    0.5540987082356461    0.3983218350276383    0.3275121359904648
    0.5371725796131394    0.4891962459440337    0.3392345874408699
    0.6098550454052195    0.5370617123433288    0.3659305875350205
