Au43 rank 8
1.0
   27.8656773212472224    0.0000000000000000    0.0000000000000000
    0.0000000000000000   31.1221987621756178    0.0000000000000000
    0.0000000000000000    0.0000000000000000   30.7516827822127432
  Au
  43
Direct
    0.4461685870194491    0.5070668935952060    0.6746157270080083
    0.5259691517857868    0.4559306559270036    0.6733101563152868
    0.5139147450080780    0.3693753886700631    0.6607475739344478
    0.6094985489431113    0.4934218676176464    0.6460940471094359
    0.4351494512931998    0.4219121026647236    0.6550281112718982
    0.5272068413516974    0.5394727633601070    0.6345045310321296
    0.5943620368865576    0.4082117651645292    0.6272996722871014
    0.4375624265734208    0.5623616382091738    0.6051048962373632
    0.3864127115430599    0.4867672174547863    0.6059592200643019
    0.4469486922312716    0.3530690433214183    0.5973551457378729
    0.3647407905350780    0.4017887613429850    0.5965331085578255
    0.5455490381522258    0.3441521597276189    0.5804973610491713
    0.6006993576309045    0.5477507861153834    0.5748389709021240
    0.6358941911961935    0.4647114477286882    0.5653977270888846
    0.5186892134707519    0.5970260238036322    0.5669146630849012
    0.6284608161730330    0.3784185170861414    0.5498189694220458
    0.4258020859462094    0.6207898902185403    0.5421085093606295
    0.3751700237470758    0.5433425856058850    0.5378240185024246
    0.4793963325625302    0.3225904199915466    0.5195293628393537
    0.3576232790727569    0.4567734839312723    0.5256067487062265
    0.4026609428284946    0.3774376328365762    0.5181020270961055
    0.5849916941110893    0.5952903565406668    0.5005992062923210
    0.6391803807696922    0.5201951252624383    0.4974299212280180
    0.5581586239246037    0.3658166116835780    0.4887146271628618
    0.5031057429157860    0.6404463224207627    0.4884486817993027
    0.6206278880285695    0.4344392060833215    0.4808665649914821
    0.4152565558241297    0.6787777373738622    0.4752861438610987
    0.3834787422169686    0.5957437773071855    0.4641608496061754
    0.4694310326740629    0.3778354316254295    0.4501894382083897
    0.3610527374228210    0.5115799461643175    0.4552793418542881
    0.3856748004593851    0.4253337102005751    0.4460717025288636
    0.6403757263321358    0.5759127403656448    0.4290736900680018
    0.4540932275749650    0.6305295097964591    0.4091897416543748
    0.5904158034489918    0.5596210557925253    0.3548342376703114
    0.4588577475489393    0.4361779525674593    0.3848193411876312
    0.4016348820915699    0.5585272455877591    0.3859046849905139
    0.5483699388423197    0.4229026310985307    0.4202968308144953
    0.5514924388395420    0.6146630100025792    0.4162833994827249
    0.6089543401663875    0.4925628501663280    0.4153901806870932
    0.3698613937442608    0.4745629898217495    0.3742890647723646
    0.5326791407800773    0.4886026872644896    0.3593144288770820
    0.4437977677600178    0.5045891395275416    0.3250941002387342
    0.4942110598456587    0.5739694911235231    0.3532788475004133
