Au
 1.0000000000000000
    31.1885744329999994    0.0000000000000000    0.0000000000000000
     0.0000000000000000   30.7072257449999988    0.0000000000000000
     0.0000000000000000    0.0000000000000000   28.1745642809999985
 Au 
  43
Cartesian
 16.0689099999999989 16.5877699999999990 17.6314400000000013
 18.2098200000000006 14.9069500000000001 18.1120200000000011
 18.7047500000000007 17.3734399999999987 17.0908900000000017
 15.7676599999999993 13.8298900000000007 17.7308100000000017
 13.5599900000000009 15.4024099999999997 17.4576899999999995
 13.3293999999999997 12.6887299999999996 17.1900399999999998
 13.4106600000000000  9.9944900000000008 16.4864899999999999
 11.4536499999999997 16.9677900000000008 16.6616299999999988
 15.7236300000000000 11.4272200000000002 16.3207400000000007
 14.0302500000000006 17.9628200000000007 16.4758400000000016
 11.2630099999999995 14.2590800000000009 16.3106299999999997
 16.6069299999999984 18.9018799999999985 16.2068599999999989
 17.8903199999999991 13.0222700000000007 16.1016300000000001
 19.8308399999999985 14.9722600000000003 15.9102300000000003
 21.0995500000000007 17.3661700000000003 15.7533100000000008
 11.6352799999999998 11.6609999999999996 15.2531800000000004
 19.2261699999999998 19.2871699999999997 15.1860700000000008
 10.4433299999999996 16.0339199999999984 14.3041999999999998
 12.2782900000000001 18.2138400000000011 14.3597900000000003
 14.1196099999999998 11.1071100000000005 14.0569299999999995
 14.6747700000000005 19.5051200000000016 14.2751000000000001
  9.9777500000000003 13.3660999999999994 14.0073500000000006
 17.1417700000000011 20.6706399999999988 14.1786499999999993
 16.7192599999999985 12.1134199999999996 13.7978699999999996
 19.0754400000000004 13.5526999999999997 13.6797100000000000
 21.1980900000000005 18.5311899999999987 13.2986900000000006
 20.8343200000000017 15.7628299999999992 13.4751300000000001
 12.1022200000000009 12.2305299999999999 12.5786300000000004
 18.8798800000000000 19.5969300000000004 12.3841599999999996
 14.8153100000000002 12.4719300000000004 11.8310800000000000
 11.0417199999999998 17.4575099999999992 12.0334599999999998
 10.9960000000000004 14.7275100000000005 11.8854100000000003
 13.5713100000000004 18.5583199999999984 11.9297299999999993
 16.1048100000000005 19.5834699999999984 11.8710599999999999
 17.3661700000000003 13.4243500000000004 11.4814500000000006
 19.9738299999999995 17.2390700000000017 11.2398199999999999
 19.8928499999999993 14.5105199999999996 11.2501099999999994
 13.0327400000000004 16.2067699999999988 10.5869499999999999
 12.8020899999999997 13.4908599999999996 10.2590000000000003
 15.2906600000000008 14.6591400000000007 10.1750799999999995
 15.4405000000000001 17.4295100000000005 10.2349700000000006
 17.7400500000000001 15.8588100000000001 10.1866800000000008
 17.9251800000000010 18.5868900000000004 10.0370299999999997
