Au43 rank 12
1.0
   29.2972534278140238    0.0000000000000000    0.0000000000000000
    0.0000000000000000   30.9461138526156638    0.0000000000000000
    0.0000000000000000    0.0000000000000000   28.6621168935873278
  Au
  43
Direct
    0.6575979263735201    0.5879203531499618    0.6512118181356275
    0.4522966395189768    0.4568758640739395    0.6430215379380672
    0.5078739046199392    0.5291015403566304    0.6443018042604263
    0.5666470991136043    0.6009465565484757    0.6335278277987000
    0.6026527901375535    0.5145054978585132    0.6406426677180306
    0.5437323914872586    0.4470927787786033    0.6220155397885605
    0.4789575234201653    0.6056523517254121    0.6024345618459550
    0.4229899836602670    0.5319368122945833    0.6019389966072189
    0.4760582841838876    0.3863478275144083    0.5919568186147818
    0.4019775980214952    0.6043869731697022    0.5492980575058877
    0.6552715629533883    0.5460821768614369    0.5656133278757334
    0.6352400014069739    0.6347640090511302    0.5724181605870817
    0.5441931879374957    0.6617078163259614    0.5661652029772508
    0.6135363819798459    0.4647700281929204    0.5585289417616911
    0.5565784465589267    0.5445150122599079    0.5557964535345306
    0.4208493791202620    0.4524374122456597    0.5519495579760191
    0.4561502051068634    0.6771250971478144    0.5460782257710595
    0.5593647809928605    0.3930550670305031    0.5456117863548328
    0.5048660492923235    0.3219985233594111    0.5299451151798278
    0.5307175943238531    0.4738354833434437    0.5000402262586435
    0.3763186699056320    0.5219225946790742    0.5139811946056568
    0.4706307232212597    0.3975708690089246    0.4942396085914320
    0.6513457317392805    0.5046133709149727    0.4818334101929795
    0.4724996153591812    0.5451396577084863    0.5159213953573416
    0.6399741433501532    0.5938596999083534    0.4845332677559251
    0.6037067445805842    0.6761169581854582    0.4940372327147900
    0.4231505311391968    0.6450140430359511    0.4619821865727284
    0.6105946943928806    0.4239623547203459    0.4711479625404984
    0.5137781517992385    0.6706983214216874    0.4700670665959470
    0.5492332512755731    0.5540631303852412    0.4602088585759999
    0.4370529927804104    0.4734105754860034    0.4582603055033472
    0.5490384497212010    0.3555606522911481    0.4539066532653231
    0.4149266060486495    0.5583357053653347    0.4328226256656947
    0.5808070233843641    0.6296187907093832    0.4160562078641230
    0.3424823431813991    0.5993758099783636    0.4757883738432113
    0.5094194053061022    0.4317746646453196    0.4128422439325296
    0.4876705862931213    0.6092609334932549    0.4037468944332844
    0.6519851596419218    0.4637374031492116    0.3957607440719450
    0.5899875885018775    0.3961245209463285    0.3806824862113221
    0.4851224534151635    0.5163245014612532    0.3897783718381492
    0.5517521465475752    0.5680766544833805    0.3498733687815440
    0.5676555902571826    0.4819456409003038    0.3582845173436667
    0.6276449595197660    0.5489481699057697    0.4008677875520712
