Au43 rank 18
1.0
   29.1627907425036419    0.0000000000000000    0.0000000000000000
    0.0000000000000000   27.6835450795404405    0.0000000000000000
    0.0000000000000000    0.0000000000000000   30.6444536504093605
  Au
  43
Direct
    0.4246231863287612    0.4322580662189447    0.6349594825344396
    0.5089428970315979    0.4249312455590645    0.6741386168849055
    0.5849909412045274    0.3896997272695322    0.6315179062014417
    0.3809314378314750    0.5226863749410533    0.6358316259814610
    0.4732173385096349    0.5162074504085031    0.6532712285652028
    0.5603482195403980    0.4883775882906966    0.6245197844333413
    0.4955002264295493    0.3834773650820972    0.5932132868332533
    0.5730479328938088    0.3658183048332289    0.5425029923626952
    0.3450599728439986    0.4500908664224502    0.5866172767030637
    0.4374263841332212    0.5849419093220761    0.5917678132383755
    0.5282370329551740    0.5822617874155028    0.6132497913820635
    0.6588267178098013    0.3602519593173249    0.5796780766849661
    0.6254746000310413    0.4520171436464800    0.5672711817854613
    0.5298179422948798    0.4591863347304942    0.5347144257551432
    0.5947450774143432    0.5445784608709913    0.5565743577958421
    0.3680807367580540    0.5368643241738554    0.5464435199339214
    0.4105336616451305    0.3900497484649176    0.5536597482735486
    0.5559167345094310    0.6349974616342517    0.5424830856585542
    0.6527135834935786    0.3952383797756155    0.4941909713287482
    0.4170673983129704    0.6086371239204481    0.5056346622735153
    0.6198353903307841    0.4904232268527702    0.4835830999273071
    0.4425991730903276    0.4776989820501173    0.4994123640772365
    0.3502483812360413    0.4504951991317311    0.4974075268652196
    0.4970349813750471    0.5529013897803806    0.5248696172613795
    0.4025958051477511    0.3736922342631567    0.4659805526294075
    0.4878463623936949    0.3671293449115152    0.5035510540600321
    0.4989259760254108    0.6399894132548108    0.4712245497035413
    0.5796844336227183    0.5816254638283660    0.4712731437512384
    0.5203424652558905    0.4979273857505970    0.4494197574649296
    0.3690358465036016    0.5411272596941942    0.4571489166027030
    0.5647386002827193    0.3959873079251705    0.4562384499446045
    0.6420194029397228    0.4326044881323197    0.4114617165851330
    0.4317323957348579    0.6070327715176368    0.4162729863281999
    0.3908572762522605    0.4539363490264236    0.4142530214368888
    0.4766028889246738    0.4064345709137413    0.4207340995388025
    0.6018593539964570    0.5274127176865988    0.4003831941375416
    0.5242657460913297    0.5874507158718949    0.3972740901348835
    0.5511136702821912    0.4403730344784393    0.3755654977682115
    0.3863965406352929    0.5389793074814797    0.3692663216073797
    0.4662210684954946    0.4844531785220939    0.3652889397753464
    0.6251335758439348    0.4728210776914178    0.3294803114020913
    0.5439503100553073    0.5265883505525204    0.3249662895867040
    0.4624384389213430    0.5772514152552274    0.3297565031089369
