Au43 rank 4
1.0
   28.8185552950166866    0.0000000000000000    0.0000000000000000
    0.0000000000000000   31.2061679669797982    0.0000000000000000
    0.0000000000000000    0.0000000000000000   28.4731698984843860
  Au
  43
Direct
    0.5317324273158544    0.5075377015378171    0.6478105148261157
    0.4863730331537281    0.5844987075832017    0.6373164587417790
    0.4405045937051659    0.5069167899307843    0.6217745002915864
    0.5817714758673630    0.5822982651981560    0.6262042852520038
    0.4898682152633100    0.4314234366372444    0.6214092915667120
    0.6279870309210556    0.5093989956983638    0.6423994462140701
    0.5835661834918473    0.4327724202116838    0.6356303196306551
    0.5356293755012879    0.6566818672329912    0.6087941525603435
    0.3937142920627303    0.5838730209409190    0.6157562530779276
    0.6426186083405137    0.3747224448707786    0.5951965021162263
    0.5461568036184197    0.3607982929548741    0.5955047963174270
    0.4457545064231337    0.6492228420303727    0.5803312240383005
    0.6549815715985040    0.4583498854828424    0.5700345371915714
    0.6343581698966396    0.5441413349819048    0.5536567226879581
    0.4558480856927056    0.3643228173507508    0.5693258242481632
    0.5939899534683893    0.6232010397891308    0.5412083533038720
    0.4162439755997413    0.4431735977812577    0.5592289792054953
    0.3773822739486163    0.5219466740913713    0.5499876854372913
    0.6046639922701875    0.3193374791178573    0.5334744334308772
    0.5163024546572365    0.6768082166904003    0.5182523304765931
    0.3750516155377181    0.6109238116075627    0.5267933852800046
    0.6468954622946225    0.3980713559239147    0.5011797694582500
    0.5178678250068129    0.3405486511320053    0.5019649534916772
    0.4239651539544350    0.6799640039858691    0.4931971994013803
    0.6399419295728955    0.4862953201329540    0.4798325361715331
    0.4479912945686613    0.3994141815537430    0.4804985614211083
    0.6140072504466844    0.5705810964925195    0.4652274799205789
    0.5808386890445502    0.6538145815918862    0.4524659967010728
    0.3941010902256021    0.4718275679259696    0.4706664289614666
    0.3475649822132086    0.5493340665092200    0.4638168070772990
    0.5973458510309617    0.3411099571191880    0.4430142446554942
    0.4891701092401727    0.6554203652284925    0.4277541784660653
    0.4021743772745833    0.6147793143227254    0.4329782900527731
    0.6166395640412103    0.4254470035426934    0.4162006025536700
    0.5128856376186131    0.3782240255346729    0.4154329461966085
    0.5892318468286194    0.5096531182401488    0.4011424467894004
    0.5500551367539661    0.5894795520462027    0.3957806890668271
    0.4574421721083459    0.4506287993325723    0.4024143080090137
    0.4153252297864434    0.5293056309440235    0.3999408460859544
    0.5021365568462892    0.5197394719355926    0.3609179974220244
    0.4612249154332858    0.5988213694007414    0.3601897611218807
    0.5427777990649169    0.4430629763134349    0.3550317128558059
    0.5856166503860172    0.3654781018866755    0.3518230765577062
