Au43 rank 5
1.0
   28.9002600360408124    0.0000000000000000    0.0000000000000000
    0.0000000000000000   30.7596612449080595    0.0000000000000000
    0.0000000000000000    0.0000000000000000   29.4583164573073475
  Au
  43
Direct
    0.5500419995735671    0.4895501413743899    0.6561129159008102
    0.6446460297624576    0.5212375309686907    0.6595849180468031
    0.5664867866558315    0.5779723392684596    0.6466729143229480
    0.4777237327811207    0.5469094211761004    0.6368391448745645
    0.5367237958156968    0.4026109316495897    0.6464463086666447
    0.6261983874022663    0.4347457491757488    0.6604266509143818
    0.6555030364765719    0.6094169863507001    0.6549485916435405
    0.4636538512327149    0.4591862074890400    0.6273231217628656
    0.3921979817344559    0.5149958075527272    0.6030047117216463
    0.5448027485665107    0.3257309485897562    0.5990044861432532
    0.5009112242169413    0.6302142423477015    0.6053465224803165
    0.4103666328897986    0.6039003582548567    0.6059429846539989
    0.5962863400058590    0.6477192159800839    0.5919889569307191
    0.4688640625114462    0.3791859494284402    0.5832959893518805
    0.6061665784406485    0.3919778400551575    0.5787083798814645
    0.6337921492634836    0.4763893552654360    0.5756290546330828
    0.6381147465611633    0.5667321929606677    0.5748041129081378
    0.5486635425276785    0.5249702008452579    0.5645362198857392
    0.3989847408853663    0.4350719185901791    0.5583685173666680
    0.4582723407777677    0.5407689718017960    0.5378509940250726
    0.3323148200627258    0.4936555646666063    0.5340995824258959
    0.5317509738024726    0.6727594928132047    0.5285181935209168
    0.4962676008802796    0.4567915540833690    0.5312313668186894
    0.4465174738264400    0.6333073330012789    0.5231271852628768
    0.5373010868908095    0.3694581049916573    0.5172223017509350
    0.3691783723535449    0.5768804430837207    0.5262097310044168
    0.5964785061763208    0.6114908033120982    0.5033352262690551
    0.5990824167762618    0.4376640832106101    0.4975626376034343
    0.4454571229389795    0.3889277075463430    0.4899243968755074
    0.6214584594257233    0.5244011223315843    0.4942760290086540
    0.5197912688721061    0.5229661626510306    0.4715245022776193
    0.3764586564980817    0.4469893597855720    0.4653314117780998
    0.5124558612025130    0.6203259712564494    0.4560061167338448
    0.3463590802853857    0.5310704644183403    0.4489275356068920
    0.4263160149605629    0.5819921094670354    0.4482285092413157
    0.5248931753304094    0.4187162002964911    0.4410330570808542
    0.5898385564757532    0.4815378660504457    0.4160665995348939
    0.5877778338979571    0.5735542199448224    0.4193702375641282
    0.4377815659184538    0.4181448105773621    0.4021517747845374
    0.4200123243022130    0.5052131049008648    0.4000468727666849
    0.4948591109778598    0.5610933975593618    0.3866174492852960
    0.5052923963888125    0.4719651312034082    0.3676148427592369
    0.5713302622549591    0.5306110056205223    0.3388015520022560
