Au
 1.0000000000000000
    28.8185552949999995    0.0000000000000000    0.0000000000000000
     0.0000000000000000   31.2061679669999990    0.0000000000000000
     0.0000000000000000    0.0000000000000000   28.4731698979999983
 Au 
  43
Cartesian
 15.3203099999999992 15.8378399999999999 18.4401900000000012
 14.0110200000000003 18.2382099999999987 18.1438799999999993
 12.6883499999999998 15.8178900000000002 17.7018699999999995
 16.7591199999999994 18.1655699999999989 17.8175799999999995
 14.1131200000000003 13.4644399999999997 17.6886499999999991
 18.0970200000000006 15.8972999999999995 18.2856699999999996
 16.8148300000000006 13.5093700000000005 18.0890699999999995
 15.4335799999999992 20.4904399999999995 17.3320599999999985
 11.3412799999999994 18.2201899999999988 17.5315699999999985
 18.5174500000000002 11.6982999999999997 16.9441200000000016
 15.7340000000000000 11.2621699999999993 16.9538399999999996
 12.8422499999999999 20.2586200000000005 16.5231999999999992
 18.8846200000000017 14.3061799999999995 16.2275400000000012
 18.2971499999999985 16.9856900000000017 15.7621400000000005
 13.1280999999999999 11.3673099999999998 16.2114699999999985
 17.1269799999999996 19.4531300000000016 15.4087300000000003
 11.9845500000000005 13.8265499999999992 15.9243000000000006
 10.8658900000000003 16.2862900000000010 15.6597700000000000
 17.4203499999999991  9.9773300000000003 15.1860599999999994
 14.8800600000000003 21.1188000000000002 14.7551500000000004
 10.8048900000000003 19.0625500000000017 14.9975600000000000
 18.6633299999999984 12.4243299999999994 14.2654499999999995
 14.9128799999999995 10.6241199999999996 14.2922700000000003
 12.2183100000000007 21.2166299999999985 14.0419900000000002
 18.4714500000000008 15.1814300000000006 13.6573100000000007
 12.8890799999999999 12.4526500000000002 13.6801499999999994
 17.7183600000000006 17.8126700000000007 13.2436600000000002
 16.7447000000000017 20.4073600000000006 12.8835599999999992
 11.3398699999999995 14.7166800000000002 13.4024999999999999
 10.0087799999999998 17.1416700000000013 13.2046600000000005
 17.2038399999999996 10.6629000000000005 12.6182999999999996
 14.1003699999999998 20.4507599999999989 12.1812600000000000
 11.5921500000000002 19.1808399999999999 12.3298600000000000
 17.8041200000000011 13.2821999999999996 11.8408099999999994
 14.7586499999999994 11.7891800000000000 11.8236500000000007
 17.0038499999999999 15.9098400000000009 11.4189900000000009
 15.8614400000000000 18.3964900000000000 11.2751900000000003
 13.1683500000000002 14.0549700000000009 11.4606700000000004
 11.9644200000000005 16.5140199999999986 11.3925699999999992
 14.4762299999999993 16.2149199999999993 10.3117300000000007
 13.2982300000000002 18.6807899999999982 10.2622000000000000
 15.6438799999999993 13.8251600000000003 10.1350899999999999
 16.8733299999999993 11.4066399999999994 10.0227299999999993
