Au43 rank 6
1.0
   28.5695917530547590    0.0000000000000000    0.0000000000000000
    0.0000000000000000   29.6041912729608043    0.0000000000000000
    0.0000000000000000    0.0000000000000000   31.2225775870578062
  Au
  43
Direct
    0.5369390030064366    0.5678891381166316    0.6823641700480111
    0.4882370284175457    0.4909176380934791    0.6674087079318357
    0.5451659157175559    0.4170261768661420    0.6579281403940115
    0.5893549166228377    0.4968960094037728    0.6514025442638562
    0.4516270721941710    0.5743431727542967    0.6434282812887520
    0.4507856307272135    0.4131662485255800    0.6320825938378237
    0.6157800547337043    0.5857237293827231    0.6334550042062245
    0.4126574851394252    0.4947329477051562    0.6099614067348370
    0.5302916603903569    0.6221451436225355    0.6094069084146512
    0.3768421989232635    0.5765344514856700    0.5843334817340701
    0.4426212525660518    0.6462458417485463    0.5833226894388280
    0.5933510304833830    0.4365018372553747    0.5824680708141522
    0.6436676555712870    0.5170162656831292    0.5796798593441601
    0.5219373141917132    0.3734816208997658    0.5823735004529625
    0.4331779792625970    0.3367823706148182    0.5823910500878131
    0.4727961475698653    0.5538739865980585    0.5572061454464518
    0.3515152967527607    0.6620171239728373    0.5566758117742049
    0.4006201451511763    0.4200841246983683    0.5545177292943150
    0.6005799188578498    0.6091141842922473    0.5498083083283206
    0.4916580127590373    0.4608740023423179    0.5444756430980685
    0.5605306674928862    0.5223068237363075    0.5336271999115485
    0.3773487726849405    0.5050397786921285    0.5263381491124945
    0.5130989416990090    0.6380650454570260    0.5213899493917276
    0.5645527157677450    0.3958790417661124    0.5066869481679491
    0.4681209506094032    0.3721044423633356    0.5060501289137942
    0.6330420145441041    0.4618326472343265    0.5046897479813796
    0.6529587298450756    0.5535901921560744    0.4972179972685823
    0.3525948846708475    0.5912707625046379    0.4990219369551537
    0.4222579021829317    0.6604321574059203    0.4965043337578320
    0.4887750075459209    0.5248001305865415    0.4744703960590752
    0.4239397125466417    0.4483364601538167    0.4708133365713859
    0.5696381504984219    0.5914528461760608    0.4655362421834186
    0.3948789418375548    0.5343137767909835    0.4424712923802441
    0.4793099402666134    0.6169226394046083    0.4404292940371642
    0.5068017255157253    0.4142006017327399    0.4360120307524442
    0.6073432661786148    0.5130100861960191    0.4298055167987135
    0.6033287608026546    0.4202401560665990    0.4302614153595042
    0.3842559866191444    0.6251749975514526    0.4208537849605755
    0.4580716564239831    0.4837673322039179    0.3953224238456655
    0.5314163211913319    0.5555998029046758    0.3922912481786485
    0.5508245770737195    0.4654062456917071    0.3702622193500649
    0.4370038941002752    0.5741072280661762    0.3673300955581706
    0.4919503725478308    0.5176711455062314    0.3196140419891624
