Au44 rank 17
1.0
   30.2648465978023822    0.0000000000000000    0.0000000000000000
    0.0000000000000000   30.9915583988457328    0.0000000000000000
    0.0000000000000000    0.0000000000000000   29.3025327161028102
  Au
  44
Direct
    0.4680576856303439    0.4201512422457221    0.6552105289297951
    0.3820271933661643    0.4052245012812046    0.6353866363926034
    0.5115955504516859    0.4890722284227602    0.6143804116393407
    0.4190417892548228    0.4870873463901039    0.6197814186015985
    0.5357859275123842    0.4005847341474714    0.5988514719327492
    0.5930097250188716    0.4707994881190147    0.5807290688988151
    0.4622782290199419    0.5566767150400107    0.5789738079850612
    0.4527956985690100    0.3613545847137823    0.5859379869986401
    0.5559651188838999    0.5528949556621846    0.5672653298763081
    0.3532077775064743    0.4514188803614756    0.5609718024933337
    0.3734802245779617    0.5398719381689393    0.5584673686684346
    0.3655761481913860    0.3633796762933714    0.5540510535131369
    0.6691115744945237    0.4477014123261445    0.5354681018457128
    0.5043185168183452    0.6179236129654948    0.5275192146027382
    0.6301104930173846    0.5265989103847285    0.5147884782970599
    0.5215876286023836    0.4478965077258634    0.5184982247201735
    0.5997331015291330    0.3908609692263044    0.5305736240381322
    0.4138321891178892    0.6103546527311914    0.5197407871812462
    0.4348262552205112    0.4799421692878320    0.5229560564341962
    0.5916938268881073    0.6022121742938586    0.4939226481446459
    0.5185924779791237    0.3490447077157263    0.5228446202204914
    0.5474775751750895    0.6783089512222104    0.4748118509916678
    0.4317599684137990    0.3422474460864247    0.4956392597418004
    0.3296306108850119    0.5823502977809338    0.4893670408622797
    0.5007657278177737    0.5330750677502637    0.4873012361754306
    0.3449859689402682    0.4951972257382576    0.4788156641290279
    0.3763587553801524    0.4115874543619513    0.4759618754681574
    0.6125661948559556    0.4540053442512569    0.4618175670114529
    0.4594747165844278    0.6636179373934036    0.4577870824150239
    0.4725811028108791    0.4607861006427579    0.4419652619623397
    0.5812254443642438    0.5316108011607372    0.4325320479828300
    0.5600642133545843    0.3826473469633119    0.4457242973159142
    0.5255202833643076    0.6040441604612068    0.4275327124756884
    0.3762952776773725    0.6380517242484497    0.4365435572885847
    0.4951370741397835    0.3215749558796765    0.4340831004939708
    0.4421107376518704    0.5963602627676504    0.3919127264069143
    0.4335162314541948    0.3847271634039070    0.4083498053420141
    0.3870576424650695    0.4634967440126433    0.4007674817409673
    0.5546573873256484    0.4554689134119508    0.3881570800141344
    0.5157064094854337    0.3769120717508730    0.3638204607845074
    0.5029570044620070    0.5303070330864953    0.3813489549376589
    0.3628172694276263    0.5512362342130916    0.4082443874311452
    0.4694188660783724    0.4512730523283226    0.3474357617196200
    0.4181911205841776    0.5243328049743504    0.3413566973769225
