Au44 rank 20
1.0
   29.4301721361756492    0.0000000000000000    0.0000000000000000
    0.0000000000000000   28.2331828353182175    0.0000000000000000
    0.0000000000000000    0.0000000000000000   29.3540304520541468
  Au
  44
Direct
    0.4431191836346757    0.5488126170492589    0.6596243178849932
    0.3813414869742984    0.4761873406363231    0.6545881447073193
    0.4987463154778247    0.6261249596338923    0.6526064137290393
    0.3518977358903742    0.5679105478351023    0.6393476592112078
    0.5268448061394811    0.5409577545884875    0.6166366650861511
    0.4681295913700791    0.4658282723310750    0.6140516166307923
    0.4174069623414895    0.6275796936311623    0.6053038016435422
    0.5807402171227488    0.6257394277379844    0.6115749859410520
    0.3926806610307037    0.4159169563357388    0.5836348312361199
    0.3498146925724519    0.5052947150529583    0.5694226105997471
    0.6046082162759250    0.5412712626339818    0.5643636670350557
    0.5463822258952540    0.4643228403121554    0.5610073241764351
    0.4987546988235788    0.6397302027555647    0.5598981255600567
    0.3404032311311009    0.6054681444226820    0.5547685353352663
    0.6610562475989630    0.6204827582985118    0.5642922025061358
    0.4757891886769725    0.4039507429723426    0.5402663818757214
    0.4299437708656576    0.5061344068208699    0.5134811738366429
    0.5155927000093299    0.5455043414078063    0.5110762306123675
    0.4190830379672302    0.6440715038443966    0.5119057889860144
    0.5805842378776425    0.6266463881766330    0.5154774394608929
    0.3975556994766353    0.3564098103336131    0.5116345453576707
    0.6134999592272401    0.4789511065677991    0.4938688732556210
    0.3542867233843220    0.4432863962812137    0.4978615970781093
    0.5480061058596782    0.4123917842637238    0.4818841616282974
    0.3380408893524947    0.5378976487096335    0.4826260645501585
    0.6552341162519747    0.5683531533872711    0.4855574548782350
    0.3377231236341081    0.6344000048837165    0.4672189490805598
    0.4857353328131609    0.4920193220240681    0.4410876657401275
    0.5011677452699415    0.6334797227166575    0.4654697328530941
    0.4661004086652578    0.3790299621547322    0.4493119108834233
    0.4237289300308830    0.5354526440361811    0.3693222961260244
    0.6196519782401221    0.4192455106269860    0.4211361989907786
    0.5009845054099106    0.5892722810765233    0.3815040666068577
    0.4210044201740608    0.6187750886577975    0.4204083458297980
    0.3755153923684990    0.3863668832405511    0.4249889275526378
    0.6395887943139962    0.5171402954352506    0.4090187752653976
    0.3574172695148988    0.4783665905444345    0.4076487166294139
    0.5295615152716825    0.4119670236117635    0.3879624752085582
    0.3416483747109180    0.5731956092911759    0.3945620480061508
    0.4383349264374550    0.4371445458406560    0.3754025450410584
    0.5820269735197656    0.5580762587788362    0.3427974950658100
    0.5809788533138155    0.5922482180221748    0.4295509782531394
    0.5075889604963080    0.4973411788380343    0.3450055522142156
    0.5955853224290872    0.4632525411039924    0.3428823547664190
