Au44 rank 14
1.0
   28.2966109452933594    0.0000000000000000    0.0000000000000000
    0.0000000000000000   31.2487060531370631    0.0000000000000000
    0.0000000000000000    0.0000000000000000   31.1958625891943555
  Au
  44
Direct
    0.4713230087853094    0.5557832475875241    0.6793697999036847
    0.4190461910538823    0.4955611708830435    0.6367524908852897
    0.5378964461336118    0.5965357607686481    0.6309340937377481
    0.5168025347126500    0.5083259337040521    0.6161853779732950
    0.4479492233661935    0.5729920862447948    0.5949802736944230
    0.3719092290234883    0.4358177719982781    0.5894218115429495
    0.4707163436874900    0.4383044661552632    0.5847936417273381
    0.5862426472356175    0.5475635305684344    0.5679556266902998
    0.5992702476691827    0.6359897373313660    0.5779336232065968
    0.3927141565402989    0.5146566326722189    0.5521361524842027
    0.5594085273199210    0.4621814117558924    0.5518594278222068
    0.5088691421534007    0.6218127177771255    0.5466258126946889
    0.4169616226355657    0.3766493796187887    0.5405258131904149
    0.5136988714636482    0.3907266674546274    0.5225039866732317
    0.4991884779703132    0.5277738100621288    0.5205521225181488
    0.4260304798946074    0.5886068541232529    0.5102561301173147
    0.6354169192953820    0.5938550787285941    0.5072345849688452
    0.6231729579755287    0.5044753246259492    0.4993583577843012
    0.3700524747376999    0.4444909207291548    0.5009505660752879
    0.4667371835370654    0.3200878320267255    0.4902177870285531
    0.4755524267427860    0.4695341047850337    0.4599702760939200
    0.5739269606219538    0.6646708783036367    0.4971398588058544
    0.5828664865151757    0.4278363262895857    0.4737331434796692
    0.3704960845660933    0.5289454324738837    0.4688909753240370
    0.4871056607426508    0.6386490706937982    0.4627354202729059
    0.5516023951058624    0.6832116885141204    0.4120500577202136
    0.5210706682143508    0.3694927220851268    0.4347417506875912
    0.6373288709981575    0.6429116355083035    0.4336682436406688
    0.4156894501321766    0.5930137282230105    0.4229141597355869
    0.4250797274275609    0.3892565751046345    0.4520735098924484
    0.3856806490072573    0.4589745426603521    0.4143172338880596
    0.3550864320661618    0.5353483441812643    0.3822010657679115
    0.6426379610588471    0.5558157688515698    0.4279731044519245
    0.5138525515406702    0.5457996005085265    0.4352528726168556
    0.6451415387749189    0.4694304682360119    0.4200341503543912
    0.4814022396419395    0.6377452829321976    0.3728088255953864
    0.5722710071722836    0.6010797073327734    0.3840278158101953
    0.5669906413220213    0.4285559966353151    0.3856157163033296
    0.4686606501598677    0.4236557208032437    0.3797489817379200
    0.5836716931597504    0.5143720174211083    0.3693387662562456
    0.4149417365131193    0.5862681587471237    0.3338405815205162
    0.4289890908402219    0.4958398949858799    0.3427808878671423
    0.5043229845422705    0.5553850055098323    0.3411351438849300
    0.5181880666751375    0.4704436253865382    0.3202695524752104
