Au44 rank 2
1.0
   30.7215255048547391    0.0000000000000000    0.0000000000000000
    0.0000000000000000   30.1808375943988523    0.0000000000000000
    0.0000000000000000    0.0000000000000000   29.2911056320047223
  Au
  44
Direct
    0.5798613643533528    0.6053118928109269    0.5944435639445008
    0.5705715486902324    0.5122888457476876    0.5876941044017920
    0.4839922839442520    0.4866319373489457    0.5986388862937062
    0.5083591203401089    0.5632455595824922    0.6374720704251791
    0.5335524690604222    0.6461244994815772    0.6618353306500903
    0.4342449892780412    0.5629057568667545    0.5821346565072125
    0.4870992260152971    0.6410113313227909    0.5834229690053488
    0.4016057543234215    0.4793608223018203    0.5588095936136273
    0.5484810503606066    0.4271444726230260    0.5615756101851899
    0.4590002685009800    0.4090240161148216    0.5607249333999063
    0.6293204170312950    0.5565506082355063    0.5321795012036598
    0.5150449191394429    0.5675192751552622    0.5291362748396221
    0.6245422215062814    0.4647280314408878    0.5276912945876444
    0.3722907039490955    0.5537877004405193    0.5126561954743191
    0.4313230776022035    0.6249455299770548    0.5112324275625676
    0.5853874811586988    0.6306889420748085    0.5061471962468014
    0.4308402228557866    0.3312598719837157    0.5224064820918901
    0.3744012506567489    0.4016103429125273    0.5178563271038801
    0.3220327410496365    0.4755854997025067    0.5094562115383187
    0.5074003324203674    0.6719668752686185    0.4977729739089738
    0.5168643382390747    0.3537371355426164    0.5120685162669782
    0.4981619394099125    0.4795284224090895    0.4996800814211785
    0.5996264852847907    0.3824289614750280    0.4974540914317700
    0.6716827637109806    0.5120814770102574    0.4653882690985079
    0.4529347438310727    0.5476278794079497    0.4584345672734023
    0.4507796259371549    0.3986774024620349    0.4614578062396656
    0.5427079268600330    0.5427395637768012    0.4450965072183805
    0.6260195914069044    0.5856392627481840    0.4362561324282933
    0.3914968356792586    0.4662291400420794    0.4505455124878028
    0.3826991686037009    0.6068165499061635    0.4347321613532824
    0.3251781505399249    0.5316424446931157    0.4355321341850200
    0.5364284806401509    0.4135560393240690    0.4371978773440061
    0.6222663188595644    0.4424922410103840    0.4317878831767269
    0.4631778317028267    0.6460082815473268    0.4213729267271246
    0.5537127681920402    0.6406660221009629    0.4198805637176933
    0.4703080297651775    0.4658670738805415    0.4015553945061192
    0.6395900777337649    0.5140337232979006    0.3773587161724506
    0.4030513090082814    0.5235540601036089    0.3786166268750010
    0.5557011738915441    0.4803455793729313    0.3748865322876810
    0.5758107846501923    0.5744366288839210    0.3566979528279912
    0.3362614176721791    0.5821779937729428    0.3590449288889818
    0.4893000645276327    0.5428026962844082    0.3562877713159079
    0.4216081855923642    0.6093606343724388    0.3461531829825455
    0.5078544556653991    0.6313277257153002    0.3392584150908963
