Au44 rank 11
1.0
   29.6605794890152339    0.0000000000000000    0.0000000000000000
    0.0000000000000000   29.9769028663573991    0.0000000000000000
    0.0000000000000000    0.0000000000000000   30.4335020287652043
  Au
  44
Direct
    0.4978272724605898    0.5446516915878212    0.6726001309973471
    0.4568724301609683    0.4649843021687341    0.6483524254773838
    0.4377980442816757    0.5438400959447703    0.6040592788521488
    0.5192558826691690    0.5916733132173326    0.5965931357650351
    0.5336301832379714    0.4982562237901736    0.6020198136624805
    0.4227169711693454    0.3851566819838899    0.6212423900056148
    0.5004988213090262    0.4143687234652620    0.5801273641757081
    0.3937559161923243    0.4638738752676646    0.5801951084721610
    0.4437787111585894    0.6128386293984139    0.5453681559099847
    0.5790570974648290    0.5464067046672459    0.5392628799311914
    0.5650941930881304    0.4540639486822186    0.5276629096979435
    0.3835198481473568    0.5421327896182171    0.5319372001732142
    0.5309042938349839    0.6213679949416470    0.5124524784143206
    0.4688251404971715    0.4925628568813530    0.5273171621791578
    0.5834231154685811    0.4174467549933941    0.4455534285714187
    0.4612629861857322    0.3326833631666022    0.5562167194619563
    0.3873329648590054    0.3845564059927449    0.5355193734168707
    0.3797667327503471    0.6181486329763844    0.4797249416008111
    0.3569372163336458    0.4613145065989931    0.4958979727132213
    0.5276857607219760    0.3713792967610058    0.5031650227534323
    0.6208029117862591    0.4986666979186818    0.4703693392372311
    0.5250726514760145    0.5260603007086938    0.4606577233767050
    0.4448100312203708    0.3471561168950595    0.4689698572765881
    0.4355013314175176    0.5145384646662478    0.4435108306661811
    0.5991582704585900    0.5903690234641797    0.4592084196318117
    0.4599821887358853    0.6663043012931608    0.4723194114411305
    0.3597698949400724    0.3811874680587439    0.4497206335841363
    0.3671543841533919    0.4598542492117226    0.4034181631997334
    0.4877862805785709    0.4400343188741025    0.4539616788643323
    0.5796935290217299    0.3979013566457716    0.3556278057663224
    0.3425081367345621    0.5384982770357442    0.4499270067008549
    0.6203079910079197    0.4737385568708561    0.3797398495720836
    0.3354908348804493    0.6128517982576289    0.3979551142925344
    0.6626130683272753    0.5505365699814064    0.4057113304924351
    0.5175703998135861    0.6150579422333635    0.4216334857792430
    0.5152911219681562    0.3607268789387629    0.4102485515434345
    0.4278634544566753    0.3903970822757812    0.3896744139665789
    0.4287485605908334    0.6161101530044667    0.4011045934717681
    0.5727125297787415    0.5530142216149951    0.3784197095806613
    0.3866461297079877    0.5426241413255675    0.3651150236592377
    0.4824109782275394    0.5515403762143708    0.3628728645053986
    0.5339816852459696    0.4791969418120477    0.3397588814083735
    0.4399626835455806    0.4712976375757875    0.3429180968961072
    0.4923146853358357    0.3978491177753113    0.3264407384496505
