Au44 rank 7
1.0
   29.8230150094259656    0.0000000000000000    0.0000000000000000
    0.0000000000000000   29.1089616495031649    0.0000000000000000
    0.0000000000000000    0.0000000000000000   30.4730097728683589
  Au
  44
Direct
    0.4970244589119205    0.5308324841884627    0.6719688882842524
    0.5389850443827106    0.4496791947281707    0.6517210055600400
    0.5809293327299888    0.5351169221275281    0.6331367578159475
    0.4324721899678563    0.5640831550389347    0.6168655803261223
    0.5173315290009055    0.6038452434877734    0.6178150156526926
    0.4606663269280680    0.4723529639918209    0.6079290257785708
    0.6077121610652333    0.6219236367283477    0.6067740815734148
    0.5105681323168361    0.3944846798658782    0.5855825127823886
    0.3666749089089202    0.5968374393281555    0.5651231521299582
    0.5768775058557766    0.4651682760110816    0.5694673391101279
    0.3971454256208284    0.5060654499533865    0.5510485097762634
    0.4549105625966367    0.6321511906272268    0.5558306824877607
    0.4349526878349801    0.4202818393958119    0.5338589424786238
    0.6128301778527294    0.5499838565286029    0.5483861306946490
    0.5451724210300446    0.6506951141895538    0.5436950262807075
    0.4982970975327563    0.4927665368843162    0.5232722795080179
    0.6368186870313798    0.6445535053588169    0.5251644646163527
    0.4842014870952666    0.3416462347674257    0.5165737331103951
    0.5505736183149269    0.4069498174502236    0.5018292296615182
    0.3490522860608122    0.5505865796659509    0.4877438676126720
    0.3939073836714113    0.6416791295113822    0.4896059183098311
    0.5385735515895657    0.5716142108717223    0.4891358638386659
    0.3942737062242474    0.4683961752127929    0.4662505813736962
    0.5959402564183899    0.4867543298615835    0.4819891474219077
    0.4468713647210970    0.5580348672154258    0.4793079665284120
    0.4852809668949010    0.6547298984472477    0.4724506163943845
    0.4456158447426534    0.3937282957475831    0.4469545886251605
    0.6327327799299329    0.5707455881285705    0.4612330137791828
    0.5747116877151190    0.6587266461024284    0.4556232598070674
    0.5067166545320727    0.5031692037413467    0.4333230348384480
    0.5260603493372243    0.3447680434643700    0.4361149272263686
    0.6658075300064501    0.6557174951084038    0.4405699039410165
    0.3336412151961817    0.6172714863023352    0.4261405648769902
    0.5660575646360106    0.4295919434416148    0.4141953673894096
    0.4260784769664567    0.6266438252895629    0.4050823307281619
    0.5935375506518046    0.5184746144893039    0.3949226101990679
    0.6090009352323332    0.6133084616940327    0.3809643633387187
    0.3839647925476688    0.5400534563311900    0.4034846286037191
    0.5169458260658529    0.6284040409167383    0.3903162499185574
    0.4929711009751474    0.3941824359617606    0.3677650306164975
    0.5501284685857294    0.5673594908717741    0.3277386623252386
    0.4347571468877904    0.4643762006332864    0.3840854347179755
    0.5202739051791428    0.4795695393944642    0.3411586271009673
    0.4649815848287351    0.5536943055102520    0.3595588339812729
