Au
 1.0000000000000000
    29.1349510579999986    0.0000000000000000    0.0000000000000000
     0.0000000000000000   29.3268676409999998    0.0000000000000000
     0.0000000000000000    0.0000000000000000   29.1638340989999989
 Au 
  44
Cartesian
 15.7958200000000009 14.9726400000000002 17.9487699999999997
 16.9296900000000008 17.4687400000000004 18.7043199999999992
 12.9762400000000007 14.6368200000000002 18.5420100000000012
 14.2690099999999997 16.9151200000000017 19.2258800000000001
 11.7907299999999999 12.3481199999999998 17.7656600000000005
 14.4045100000000001 12.8322199999999995 16.8744799999999984
 17.7418300000000002 18.8813899999999997 16.4918000000000013
 17.6958300000000008 16.1593699999999991 16.2742299999999993
 15.0082000000000004 18.3091399999999993 16.8954300000000011
 12.6365999999999996 16.8730399999999996 16.9069700000000012
 11.1813800000000008 14.6155299999999997 16.3282500000000006
 16.8445999999999998 13.5630400000000009 15.7585999999999995
 14.9195700000000002 15.7408900000000003 15.3879500000000000
 12.7587700000000002 10.9542999999999999 15.5595900000000000
 10.2136099999999992 12.0967500000000001 15.5353499999999993
 15.3614899999999999 11.4902700000000006 14.6508099999999999
 18.5630400000000009 17.8961199999999998 14.0795999999999992
 18.3273399999999995 15.0264799999999994 13.8663799999999995
 15.9787800000000004 18.9539000000000009 14.3817599999999999
 13.2838700000000003 18.4725800000000007 14.7497900000000008
 11.0826300000000000 16.7738599999999991 14.5770900000000001
 17.7458099999999988 12.3309899999999999 13.4327699999999997
 12.9087200000000006 14.5819299999999998 13.9280100000000004
 10.0599399999999992 14.2073400000000003 13.7534399999999994
 15.5021000000000004 14.0268599999999992 13.1727799999999995
 13.6066199999999995  9.9765499999999996 13.1379800000000007
 11.6779299999999999 11.9734999999999996 13.2041500000000003
 14.6052700000000009 16.5854299999999988 12.8079800000000006
 19.1688900000000011 16.6172000000000004 11.7402700000000006
 16.0023599999999995 10.5114199999999993 11.9901099999999996
 16.8791200000000003 18.1246200000000002 11.8906600000000005
 14.2992200000000000 19.3299999999999983 12.2061299999999999
 11.6901799999999998 18.3831999999999987 12.4809199999999993
 18.8869399999999992 13.9299400000000002 11.3131299999999992
 13.8009299999999993 12.2048699999999997 11.4718900000000001
 10.0201899999999995 16.2554100000000012 11.9970599999999994
 18.4982499999999987 11.2181499999999996 11.0575100000000006
 11.7093000000000007 14.0770999999999997 11.3643400000000003
 16.8190899999999992 15.6542999999999992 10.5788399999999996
 16.3542400000000008 12.9298999999999999 10.6077600000000007
 14.2392299999999992 14.6920099999999998 10.3859399999999997
 14.7552800000000008 17.4629499999999993 10.1071100000000005
 12.1469199999999997 16.5230700000000006 10.2652999999999999
 12.5648099999999996 19.2265100000000011 10.0291800000000002
