Au
 1.0000000000000000
    29.8230150089999988    0.0000000000000000    0.0000000000000000
     0.0000000000000000   29.1089616500000012    0.0000000000000000
     0.0000000000000000    0.0000000000000000   30.4730097730000011
 Au 
  44
Cartesian
 14.8289200000000001 15.4539799999999996 20.4731400000000008
 16.0812400000000011 13.0890000000000004 19.8610900000000008
 17.3306600000000017 15.5818399999999997 19.2955499999999986
 12.9025700000000008 16.4206099999999999 18.7949500000000000
 15.4314300000000006 17.5821499999999986 18.8277700000000010
 13.7449100000000008 13.7486099999999993 18.5267799999999987
 18.1247700000000016 18.1090899999999984 18.4881799999999998
 15.2273999999999994 11.4779099999999996 17.8493700000000004
 10.9394399999999994 17.3769500000000008 17.2208599999999983
 17.1881500000000003 13.5508600000000001 17.3495199999999983
 11.8566299999999991 14.7355900000000002 16.7901699999999998
 13.5704700000000003 18.4033900000000017 16.9388199999999998
 12.9726999999999997 12.2283399999999993 16.2705599999999997
 18.2810300000000012 16.0103900000000010 16.7120700000000006
 16.2575099999999999 18.9506499999999996 16.5679000000000016
 14.8405299999999993 14.3495200000000001 15.9392700000000005
 18.9849299999999985 18.7671300000000016 15.9993400000000001
 14.4394299999999998  9.9366699999999994 15.7487200000000005
 16.4006599999999985 11.8550000000000004 15.2902900000000006
 10.4162499999999998 16.0287399999999991 14.8654200000000003
 11.7508800000000004 18.6857000000000006 14.9225800000000000
 16.0577900000000007 16.6413399999999996 14.9188500000000008
 11.7601099999999992 13.6325400000000005 14.2107600000000005
 17.7681299999999993 14.1700900000000001 14.6873299999999993
 13.3283199999999997 16.2490899999999989 14.5767199999999999
 14.4724100000000000 19.0633300000000006 14.3966200000000004
 13.2834800000000008 11.4506700000000006 13.6232299999999995
 18.8632099999999987 16.6152000000000015 14.0558700000000005
 17.1365799999999986 19.1760899999999985 13.8789200000000008
 15.1289499999999997 14.6477699999999995 13.2010299999999994
 15.6850699999999996 10.0311500000000002 13.2971299999999992
 19.8537099999999995 19.0875400000000006 13.4215099999999996
  9.9518699999999995 17.9711600000000011 12.9924199999999992
 16.8849499999999999 12.4993499999999997 12.6208799999999997
 12.7044200000000007 18.2354799999999990 12.3445199999999993
 17.7151999999999994 15.0838199999999993 12.0283300000000004
 18.1601600000000012 17.8495699999999999 11.6077800000000000
 11.4439200000000003 15.7164300000000008 12.2919099999999997
 15.4128399999999992 18.2892900000000012 11.8941099999999995
 14.7023299999999999 11.4689599999999992 11.2132699999999996
 16.4055800000000005 16.5088100000000004  9.9926999999999992
 12.9689300000000003 13.5135299999999994 11.7121700000000004
 15.5158100000000001 13.9523700000000002 10.3950399999999998
 13.8659499999999998 16.1097900000000003 10.9581999999999997
