Au44 rank 18
1.0
   29.1358115771918769    0.0000000000000000    0.0000000000000000
    0.0000000000000000   29.3657415217882480    0.0000000000000000
    0.0000000000000000    0.0000000000000000   28.8783221883250860
  Au
  44
Direct
    0.5976985328453456    0.5034652112314368    0.6504248306262835
    0.5035989330886472    0.5026222531634251    0.6565678005955947
    0.3672534647468333    0.4141440727196796    0.6488831841431862
    0.4624109510047263    0.4188154032199886    0.6459148430844943
    0.5509432297017299    0.4288593396317237    0.6156748071603566
    0.5497860240418274    0.5838193101456416    0.6435576224217940
    0.4538449661554292    0.5792261600383568    0.6317111394320590
    0.4072350728663323    0.4979487592152678    0.6482025095225086
    0.4995513957788424    0.6571418598268086    0.6107041916835541
    0.4182666568439975    0.3419765161255161    0.6126333329840348
    0.3730633610328896    0.5613443811135831    0.5802578840428833
    0.3511626573254456    0.4698746247546734    0.5735541762333002
    0.5015734596724978    0.3586582487178254    0.5767231470425781
    0.4537319486565380    0.5070362463379341    0.5650255756667460
    0.6295887418433517    0.4614702240366311    0.5704174929446031
    0.4227555936057100    0.6385245492116011    0.5618379314750180
    0.5842877186938991    0.6434884008187903    0.5722146735478382
    0.6143515514991534    0.5554716075026210    0.5724327616109711
    0.3431232901206399    0.3763782141161499    0.5629064926826308
    0.5441678226693050    0.4989691200730844    0.5357253674427621
    0.5828344334487439    0.3844382746563329    0.5367905502670899
    0.4234303846527681    0.3542999738788406    0.5171000643075070
    0.5085513337518069    0.6547294939915393    0.5149692174231970
    0.3544105309852779    0.6135942305844214    0.5024635132471110
    0.3626005900760994    0.5199441384422927    0.4943282983403013
    0.4810252817589228    0.4334281894322909    0.5131355433538279
    0.3690719243712954    0.4263061814202386    0.4881469566987267
    0.5760752904739496    0.5907814406541568    0.4931425762682596
    0.6576456681911013    0.4197080872609859    0.4893912129445125
    0.6267977304772846    0.5109297080496494    0.4859437108161975
    0.4756213734307440    0.5190248079514317    0.4737967299780299
    0.5120506887304297    0.3502824168032985    0.4793242949055705
    0.4291325277022390    0.6589916031532492    0.4654671094910894
    0.5992066419637597    0.3612716254088971    0.4442489293615658
    0.4066052648193954    0.5755909965000624    0.4296899465858967
    0.5005961330959571    0.6046544372801927    0.4354908347536209
    0.4389245659462984    0.3924723189672479    0.4309412435032829
    0.4027618320651025    0.4806329227773868    0.4172698638940748
    0.5622145060210498    0.5350033487949286    0.4187013776384546
    0.6051623841170252    0.4506802773796289    0.4156498427433520
    0.5280559978812291    0.3917104150376178    0.3929579576117503
    0.4742996876432480    0.5315647475302847    0.3766690470480086
    0.4564185507686888    0.4385628367423387    0.3508773060215539
    0.5437516473984597    0.4741355202795507    0.3492559506353212
