Au
 1.0000000000000000
    28.9739543899999994    0.0000000000000000    0.0000000000000000
     0.0000000000000000   28.5620076830000009    0.0000000000000000
     0.0000000000000000    0.0000000000000000   30.2253739629999991
 Au 
  44
Cartesian
 11.2410499999999995 15.5332000000000008 20.2685999999999993
 11.0215099999999993 12.8693000000000008 19.6963000000000008
 13.5938999999999997 16.9571100000000001 20.2476799999999990
 13.4485700000000001 14.2941500000000001 19.2586699999999986
 10.6380800000000004 14.8364499999999992 17.6386199999999995
 10.8840900000000005 10.2519500000000008 18.8524799999999999
 13.1574500000000008 11.7462800000000005 18.2147599999999983
 15.3474699999999995 16.0384500000000010 18.2911299999999990
 14.3654200000000003 18.6774200000000015 18.2376600000000018
 10.3610000000000007 12.1734000000000009 16.9887499999999996
 15.3457000000000008 13.3383000000000003 17.5101200000000006
 11.9510699999999996 17.2348900000000000 18.0585999999999984
 12.7187900000000003 13.5468499999999992 16.0070399999999999
 12.0616800000000008  9.9748500000000000 16.3363100000000010
 17.3121699999999983 15.1271799999999992 16.5853900000000003
 15.8344100000000001 17.7486299999999986 16.1121799999999986
 14.6309000000000005 11.1354100000000003 15.9162199999999991
 10.8779699999999995 16.6875600000000013 15.6039700000000003
 13.1170200000000001 18.4177800000000005 15.8001900000000006
 10.0398999999999994 14.0641700000000007 15.0085700000000006
 16.9505300000000005 12.5390999999999995 15.4402200000000001
 14.2708999999999993 13.1238399999999995 13.6768900000000002
 10.6060499999999998 11.3355999999999995 14.4025099999999995
 19.0030900000000003 14.2968299999999999 14.6667400000000008
 14.7884899999999995 15.2511799999999997 15.3757999999999999
 17.1218700000000013 16.4191000000000003 14.0530000000000008
 13.1218400000000006 10.1473200000000006 13.8138500000000004
 12.5677800000000008 15.2229899999999994 13.7399500000000003
 14.6405700000000003 17.6129299999999986 13.5738699999999994
 18.2245799999999996 12.1250000000000000 13.0398399999999999
 11.8705200000000008 18.1734699999999982 13.4122500000000002
 15.8363700000000005 10.8399400000000004 13.3724000000000007
  9.9890399999999993 15.9585799999999995 13.0023599999999995
 10.3434799999999996 13.2367799999999995 12.4099599999999999
 11.2189099999999993 10.6006900000000002 11.8633199999999999
 18.0840600000000009 14.7426100000000009 12.1253299999999999
 15.6574200000000001 15.8543500000000002 11.7006599999999992
 16.0849399999999996 12.9986800000000002 11.4372500000000006
 13.8001500000000004 11.4620599999999992 11.3994099999999996
 13.1541700000000006 16.8307199999999995 11.3177000000000003
 10.5227900000000005 17.8190400000000011 11.0514100000000006
 13.7239699999999996 14.1809899999999995 10.6995699999999996
 11.0833700000000004 15.1708400000000001 10.4844700000000000
 11.6123200000000004 12.5441099999999999 10.0140700000000002
