Au44 rank 9
1.0
   29.6034458826482449    0.0000000000000000    0.0000000000000000
    0.0000000000000000   30.8714338675934528    0.0000000000000000
    0.0000000000000000    0.0000000000000000   28.9288069216367631
  Au
  44
Direct
    0.4847627181457283    0.4074239820474543    0.6413512451230038
    0.5297406209416302    0.4885427574666465    0.6432022120531290
    0.4359746478863744    0.4831676381095972    0.6445728641164760
    0.3856298937345973    0.5561616302487626    0.6459513252299510
    0.4798015261232659    0.5670008936624009    0.6421250064677692
    0.5649879914021442    0.5621734279211311    0.5984775887951816
    0.4214271008712719    0.6322147753911964    0.6127103393983665
    0.5613807182077559    0.4178214455424522    0.5886590392578701
    0.6160599921884904    0.4865996470832004    0.6070944883950294
    0.4938230374427203    0.3577763342517852    0.5640795939473272
    0.4337641120453006    0.4294051407318938    0.5648206351517610
    0.5041470170205709    0.6234206311034768    0.5689740648829986
    0.3828283949738391    0.5039601844430835    0.5655480261333437
    0.4811312557334155    0.5164535531827381    0.5617222181870879
    0.3498442035853024    0.5863623859228120    0.5649980507842238
    0.6377354666008651    0.5438283616419797    0.5391989668884926
    0.3513266354130337    0.6738528203707655    0.5658120954396240
    0.5035844549569356    0.3131021641958285    0.4808296085321554
    0.6061910574037053    0.4588723908900418    0.5172121063589210
    0.5839692489088752    0.6173517978754648    0.5204742079002594
    0.3395844141307441    0.6321925095391404    0.4810829742336183
    0.4525054558692727    0.5418713075168784    0.4749987447147694
    0.6623571266082823    0.5984752630756389    0.4687037329055420
    0.4271794264825128    0.6474967683195805    0.5191348603422529
    0.5592982985773419    0.3843510477078004    0.4997108740396914
    0.4488243927417421    0.3848350088576347    0.4817875735407642
    0.3550119808210769    0.5417216903827947    0.4822464857124896
    0.5004800260633776    0.4609004071194833    0.4885567944240555
    0.5445838714918358    0.5372727472565252    0.4942496482988570
    0.6268403426564105    0.5177096324095591    0.4455271315071186
    0.5027989239259175    0.6246605660020363    0.4720800393851503
    0.3984749681489036    0.4612737228012205    0.4828495253908552
    0.5801490446909214    0.5960798162787930    0.4238808011558419
    0.5192524179188710    0.3741921305631665    0.4135575898505758
    0.5806009484427804    0.4418579444197148    0.4276614632971016
    0.3354651438099239    0.5860266100206852    0.3999350788831367
    0.4185803176790370    0.6184013469809979    0.4296866649318667
    0.4478610465027209    0.4396824308371954    0.4043382105280552
    0.3899668285098117    0.5085040280609852    0.4005628395101926
    0.5557995605778520    0.5182337328143181    0.3812237358462731
    0.4948608852091188    0.5853149936209405    0.3860079187124416
    0.5250688792594280    0.4390372907874703    0.3508994951184436
    0.4684064562303490    0.5076825771109595    0.3423851006483055
    0.4107543291186859    0.5776241343998101    0.3446005727855601
