Au44 rank 6
1.0
   28.9739543903970684    0.0000000000000000    0.0000000000000000
    0.0000000000000000   28.5620076834925243    0.0000000000000000
    0.0000000000000000    0.0000000000000000   30.2253739625204787
  Au
  44
Direct
    0.3883397174434708    0.5438707021964222    0.6707354749438383
    0.3805913184654620    0.4506244008576230    0.6518794903340372
    0.4695173272580865    0.5938134761052866    0.6700616697785657
    0.4645008861733028    0.5002598193178850    0.6377024921542990
    0.3673603305654496    0.5194431946677301    0.5837314230632602
    0.3754673072690233    0.3589912965147428    0.6238643382173369
    0.4539940928835660    0.4112284471185533    0.6026766147444125
    0.5293174522020243    0.5616264682070615    0.6048071780445550
    0.4960129386892055    0.6541209163313721    0.6034395174717457
    0.3576086825511607    0.4262523034528776    0.5622069175624398
    0.5291607485836360    0.4671067526327079    0.5789823574908258
    0.4131449492880382    0.6030735230157562    0.5973509416774125
    0.4386759827532545    0.4743767909630162    0.5294649919231872
    0.4161330658848887    0.3489962827935281    0.5406993259910038
    0.5968419806278382    0.5295479635863295    0.5482593851601140
    0.5467203984480861    0.6218267811780931    0.5328784102920416
    0.5047374764608690    0.3895261115257995    0.5266889626138447
    0.3762784185826928    0.5838398827902019    0.5160877026901937
    0.4530181722520092    0.6449338618177389    0.5226448934690204
    0.3464283881387036    0.4924810506941539    0.4966485594501328
    0.5845671217073526    0.4389762679462457    0.5105621298870671
    0.4937337123508754    0.4592756515946215    0.4535891772378947
    0.3663236743565474    0.3970760866309381    0.4766573675850447
    0.6555466403625925    0.5003886142750500    0.4851285969792059
    0.5091571787302612    0.5351133778472771    0.5088245280789093
    0.5907401162808570    0.5748967032963272    0.4647813863912217
    0.4527633582526055    0.3547234444392316    0.4571521016549596
    0.4335956332193222    0.5316500360894401    0.4530709983020486
    0.5053565754081710    0.6170056591245325    0.4487685800958877
    0.6288484217039131    0.4243025253973814    0.4312583923747986
    0.4097482310747247    0.6362220052832599    0.4437456414244408
    0.5465821740622868    0.3788736921924406    0.4423717904368645
    0.3445776041789052    0.5590219104205605    0.4303000548404892
    0.3574520834903450    0.4636792043193902    0.4106944203076293
    0.3871224028893636    0.3712658306126526    0.3926516317310662
    0.6239995455773065    0.5161292919950444    0.4010477836025320
    0.5404243513497599    0.5553210270940641    0.3868308896925152
    0.5550139875296480    0.4551373958655928    0.3785578083420515
    0.4761792381970271    0.4015229636591279    0.3777599917963532
    0.4540592086771549    0.5895467952740554    0.3742569704797926
    0.3630960511936681    0.6240247882546325    0.3656507928806753
    0.4736568820029937    0.4965462706147243    0.3541993651879251
    0.3826093261105754    0.5313048566040777    0.3469686714522511
    0.4009193867926388    0.4392214302653817    0.3313383728592395
