Au44 rank 3
1.0
   29.1126392059911794    0.0000000000000000    0.0000000000000000
    0.0000000000000000   31.0703271057702324    0.0000000000000000
    0.0000000000000000    0.0000000000000000   29.3067264294957113
  Au
  44
Direct
    0.4002399432141439    0.4828143802727504    0.6469652119269038
    0.4866523723572431    0.5200737970917502    0.6483039141555441
    0.4110604221900912    0.5655158396268170    0.6142244113437549
    0.4745170643930460    0.4295030409652720    0.6375908302315489
    0.5621427613106998    0.4659603182970142    0.6387304411832507
    0.4947224761344450    0.6050955052677425    0.6181198470485059
    0.5498499620083996    0.3783619774966900    0.6259894069653718
    0.5722184624907005    0.5541166370671470    0.6381414032513529
    0.5835842867490744    0.6378810247440058    0.6035354093055628
    0.6130038313611741    0.4221829717679904    0.5730678972795590
    0.6431296060379583    0.5014216567071095    0.5989609053155939
    0.3522225522180769    0.5057459908271680    0.5694592860624922
    0.6586442926385622    0.5862049958752910    0.6250339364252279
    0.3485609180090259    0.5917246406386850    0.5479566180308384
    0.3949816437037150    0.4158590728736425    0.5787593197740970
    0.4797705253722347    0.3758060473381139    0.5608412981950048
    0.4240832309384376    0.6405262939337154    0.5654664639128095
    0.4505608868513142    0.4858337838313840    0.5608403834757466
    0.5076225247329459    0.6839152380544736    0.5751597224878463
    0.5255405276287858    0.5362934658653640    0.5517817438064744
    0.5689705947005133    0.3444667018769065    0.5427092604247448
    0.5432413800816960    0.6237245450572241    0.5152602947505072
    0.5151894685700148    0.4554751215383563    0.4979835652046083
    0.6148253440860552    0.5709746002896382    0.5434247100010433
    0.3587606098031280    0.5312541289708305    0.4775792737150565
    0.3477216958185472    0.4451626287318513    0.5025290261348871
    0.6107101243842750    0.4884605451509148    0.5095540504388716
    0.4684984861227091    0.6741271391128862    0.4900924984947618
    0.6015961162008963    0.4061694316360574    0.4796105787282479
    0.4277366784624977    0.4032779868555538    0.4879044070835731
    0.4625989304994778    0.5286956792253217    0.4808878089438254
    0.5903615137735934    0.3225469755023226    0.4520912151656907
    0.4052483765513025    0.6094489612613260    0.4752790613281400
    0.5674217134476449    0.5540016715076953    0.4612468659733654
    0.3948297653356329    0.4655283597415252    0.4252651000919481
    0.4917226781287505    0.6053738113852748    0.4347335533029623
    0.5092979668126459    0.3631976145840671    0.4716429011869511
    0.5771116705680424    0.4733979669280541    0.4214392763488788
    0.4732174031473665    0.4188198011546822    0.4064499239863232
    0.5635663478117756    0.3860362987347127    0.3926001818694662
    0.5118379754176382    0.5307604314746064    0.3886115449062020
    0.4170251490378727    0.5515800297046157    0.4023556641638513
    0.5326254486396595    0.4528851955374794    0.3415150244841150
    0.4436093907028147    0.4831497316422966    0.3464899015779243
