Au44 rank 13
1.0
   30.1487345728078218    0.0000000000000000    0.0000000000000000
    0.0000000000000000   30.1609864098085296    0.0000000000000000
    0.0000000000000000    0.0000000000000000   29.2955491129393515
  Au
  44
Direct
    0.4570638377960837    0.3964850178514365    0.6568750273904828
    0.5183000839606714    0.4431076059817735    0.6055804852668359
    0.5767114768291407    0.4898895663679409    0.5514919960775886
    0.5184615309976491    0.5363578405009461    0.6054237405372604
    0.4485414250004994    0.4886452478319890    0.6467346228433205
    0.4392069031775706    0.5771725744840525    0.6304742912962208
    0.4845598786031296    0.3567838713172232    0.5772215814315762
    0.4227567696156572    0.4289875003860903    0.5773999454653873
    0.5553910685334754    0.4024549617013565    0.5307648575702119
    0.4992182759486083    0.6263600286076521    0.5801489158181052
    0.5832701838826997    0.5815424293133151    0.5567077405141118
    0.4189247581793843    0.6028254182298441    0.5417576443965334
    0.3976064282831646    0.5172441842655796    0.5718870720936388
    0.5627022593610681    0.6668015912832581    0.5271513574933768
    0.5204723124849704    0.3255815044553114    0.4976525710349828
    0.5047824464689785    0.5610825643569575    0.5073577451205006
    0.4488277783093616    0.3861706551895625    0.4957650102666630
    0.4824319619712955    0.6500639075367503    0.4873141648559383
    0.4836372378708617    0.4725351242589156    0.5136865105192326
    0.3593828744725877    0.5481134861726762    0.4937743761361404
    0.6226985372348515    0.4443817890526275    0.4844086091453897
    0.3914528411358462    0.4607857462630161    0.4962021291035339
    0.6310195516235138    0.5360448843815722    0.4911270787573149
    0.6364731578722360    0.6271315286851443    0.4918590345458510
    0.5935264386118512    0.3595651791876230    0.4533736209810904
    0.4638235053695512    0.5259879651510494    0.4326048641896870
    0.5497767813470241    0.4991412353097755    0.4527636854481327
    0.4078883088596370    0.6133662783432144    0.4492361222465228
    0.5107893678201496    0.3872747348588719    0.4250742725740116
    0.4314318893530248    0.4325945334758810    0.4155905345728436
    0.5633795038981964    0.6479898543360461    0.4355746121660798
    0.3306238202183635    0.5805188466809680    0.4083787426093584
    0.3702987044674559    0.4992097762054949    0.4139511777788127
    0.6660446483661632    0.4024600913935175    0.4127515550309034
    0.4841194081841805    0.6216323224876598    0.3979047214969976
    0.6280708177065955    0.5831031721338303    0.4091525835930048
    0.6532589391291624    0.4946289620648104    0.4077186095155343
    0.5847567214263912    0.4315611821970796    0.3899015430202378
    0.4215042695222165    0.4859675177347662    0.3359637382304765
    0.5039735114208417    0.4604971057769551    0.3653784093465364
    0.4098170155098322    0.5730556801500148    0.3641744941948165
    0.5776994424997128    0.5201340345405024    0.3608000622453639
    0.4933370673583556    0.5484747338918148    0.3382622815417474
    0.5614211170678113    0.6098035421118849    0.3511107069318447
