Au44 rank 16
1.0
   29.3095767445436337    0.0000000000000000    0.0000000000000000
    0.0000000000000000   28.5475636840352038    0.0000000000000000
    0.0000000000000000    0.0000000000000000   29.3394200082362744
  Au
  44
Direct
    0.4761381548613827    0.5732731841024263    0.6272868696823193
    0.5247376978185300    0.4922436750398838    0.6398928084230850
    0.4334751739053626    0.4848106039637441    0.6178430625005483
    0.6502806028289090    0.3922123995229390    0.6146722325345485
    0.5706677222158835    0.4105970683986104    0.6557088630682641
    0.6179272072053702    0.4865570373654228    0.6155706394325285
    0.4890719543449570    0.4030915665765438    0.6112815559157124
    0.4243648570178292    0.6512091246213941    0.6047342610533529
    0.5691451503234547    0.5688003838461847    0.6018243265318614
    0.3830532440482671    0.5651888888968519    0.6028534701591748
    0.3432305979927589    0.4795540822933825    0.5866940774960904
    0.5670742289334327    0.3495187093755620    0.5802348537135757
    0.5138948620870800    0.6446620788693864    0.5731695169890365
    0.4136544018574501    0.4138508028816695    0.5577798887925757
    0.6524957901328249    0.3514156915709489    0.5322317213984493
    0.4964942984602769    0.5191295789498269    0.5468751675557014
    0.5552997015616623    0.4404567787086943    0.5480695102723814
    0.6581789103856502    0.4500917080287128    0.5368623807915928
    0.6379354881126860    0.5437963188823917    0.5400222886505323
    0.5997962849285530    0.6323043780943065    0.5372844394496432
    0.4404508083267757    0.6005123349652612    0.5273473535316098
    0.4895718828403844    0.3589166750911995    0.5262683185825648
    0.3949509857928939    0.5161876293030488    0.5175137480594332
    0.3395522790191438    0.4347427806474947    0.5038892614486584
    0.5739199607842486    0.3547715700617812    0.4828556268775854
    0.5656601186249269    0.5036852201003676    0.4812712024724646
    0.5254926703777797    0.6025909705722536    0.4852808259699737
    0.4856941889449986    0.4495568822718861    0.4816152507174386
    0.4151012668161147    0.3750010426977496    0.4719138656084406
    0.6530831376199709    0.4023180095059449    0.4541654599951399
    0.6606261910140449    0.5010544986680256    0.4564008664104132
    0.6171899239347137    0.5883485503532543    0.4560512384183071
    0.4582899871647295    0.5452152217835327    0.4517632201593419
    0.3992371399244510    0.4705063708375321    0.4349334399367665
    0.4984698057938945    0.3650364282038319    0.4284022412130568
    0.3410831949138330    0.3947205253466197    0.4192226387946188
    0.5392808584975363    0.5547480414620461    0.4027716535871695
    0.5837979421308309    0.3885648918169685    0.3933275976612587
    0.6538960829198689    0.4519689679601612    0.3756328133173736
    0.4789531546188111    0.4801596729214201    0.3857945298394994
    0.6290712496002145    0.5455401355555953    0.3740354794123276
    0.4236032560186360    0.3954473087108044    0.3758273172527599
    0.5666232261216058    0.4761069552708945    0.3512878060360830
    0.5086615002287554    0.4009848761727585    0.3400852981357134
