Au44 rank 10
1.0
   29.7492499636866654    0.0000000000000000    0.0000000000000000
    0.0000000000000000   28.2890457283588290    0.0000000000000000
    0.0000000000000000    0.0000000000000000   29.1317888717771822
  Au
  44
Direct
    0.4419449575305607    0.4781639553498572    0.6576613370412013
    0.5124712711923651    0.4175864719423780    0.6483423564969374
    0.5860264511479254    0.3616117179894889    0.6313291216687944
    0.5139414307846593    0.5105748722585972    0.6057151310934893
    0.4362847810391456    0.5637683290670610    0.6138920141476095
    0.4390805291886465    0.4119179125568086    0.5866275519335875
    0.3796512732437070    0.4866863556844431    0.5880243712246055
    0.5783141941195906    0.4445799599392833    0.5820147562735926
    0.3552804431260183    0.5796801997069911    0.5713614120591359
    0.5185494076031517    0.3617628527331702    0.5671598228542017
    0.6106915586350347    0.3584080407503837    0.5399261970031686
    0.5062402986613654    0.5952289743317944    0.5558864298567915
    0.5703205172730754    0.5277397169479153    0.5318596630850645
    0.3745284735136724    0.4202718262731470    0.5175780528238605
    0.4255253204634126    0.6448138416774827    0.5619925284516519
    0.4633040188744036    0.5430480194607017    0.4851308132931194
    0.4531729931858145    0.3659800501829306    0.5019297088851267
    0.5006311126296500    0.4557931180945827    0.5213755471399149
    0.3495822700108135    0.5141311584629421    0.5030763453712538
    0.6073140840275304    0.4465985802438030    0.4917956019161545
    0.3846895451920307    0.6033757883334745    0.4841927122901934
    0.5432059404015640    0.3625276795100935    0.4740249660796779
    0.3892387094984923    0.3662876591632259    0.4351641989288835
    0.5504964982231290    0.5970254565612686    0.4702076040203798
    0.4690276125739866    0.6472037044110166    0.4791597277803114
    0.6183561336281110    0.5330137008206388    0.4499405666429032
    0.6359085413120189    0.3660566028924424    0.4490706790813996
    0.4376234776018600    0.4592814626256659    0.4508593270078479
    0.5284550448535312    0.4922664376172112    0.4378223219780838
    0.3420978463061565    0.4491725076856065    0.4316017194481704
    0.4344678016965277    0.6002014589171621    0.4017290395164171
    0.3594077047405340    0.5455461170441087    0.4128835541695999
    0.5149910623431023    0.6464466902201558    0.3964925205247783
    0.3370164286288474    0.4830863925676040    0.3444144611361277
    0.6500512324828943    0.4478116307935570    0.4010107927406397
    0.4226725444097031    0.5209906815458172    0.3454109115686615
    0.6645508973325421    0.5374989443779117    0.3680819521165243
    0.5069555937120336    0.5568758336818005    0.3567633040020682
    0.5661723000794305    0.4073476601272720    0.3939054608281722
    0.4092115949410528    0.4236611660796230    0.3604544357247621
    0.5912587036145489    0.5955342549492263    0.3805299435070509
    0.4786889018174931    0.3776850589720014    0.4069521862799907
    0.4958734830933849    0.4581623329147337    0.3516810762291445
    0.5810165184864836    0.4971464414918426    0.3551581278104675
