Au44 rank 12
1.0
   29.7964716753071599    0.0000000000000000    0.0000000000000000
    0.0000000000000000   28.8630355803025083    0.0000000000000000
    0.0000000000000000    0.0000000000000000   28.8617643228304601
  Au
  44
Direct
    0.5337900299384540    0.4443430835080184    0.6474855956573462
    0.4848382000153348    0.5244254292371546    0.6445226968273559
    0.5748038113938270    0.5268418604117663    0.6252299577358134
    0.5800442526828787    0.3628703906272638    0.6538375873217307
    0.5213822615514800    0.6055879744075569    0.6052089158426842
    0.5044154313465506    0.3656663727555973    0.5964041399042961
    0.6269833037561591    0.4448454437690769    0.6309115453876590
    0.3923547976217851    0.5137584185995329    0.6297423440851673
    0.4320133825917408    0.5994621721752686    0.6250018552609159
    0.6637830659750451    0.5233036427587252    0.5958111225054361
    0.4466388602042500    0.4397689107001429    0.6120302335892421
    0.6076969576060798    0.5939297967979953    0.5662757248434078
    0.3843068504255189    0.5647347895709247    0.5483504682630963
    0.3811249871659694    0.4645919222552780    0.5499449721721023
    0.5910048227684972    0.3853163824232039    0.5629195590850605
    0.4552457330387299    0.6291337695010889    0.5383856402758073
    0.5273841549267825    0.5417672331849127    0.5348902859792276
    0.5192341438355103    0.4472713518434333    0.5373763943447352
    0.4406804669529342    0.3907958185133055    0.5282607793795715
    0.5451382439216245    0.6410696037285218    0.5174546291520917
    0.6374895128450241    0.4610910875331817    0.5308705535445394
    0.6637350393582688    0.5497610774346113    0.5037075909817874
    0.6318837834314617    0.6399628812040155    0.4852432029774085
    0.4522208448314162    0.4986022460855497    0.4932037499942156
    0.5224099766698663    0.3512577898454137    0.5019896614870991
    0.3540765563102686    0.5154353781255242    0.4725234254515814
    0.4181654302094330    0.5865075664663919    0.4618238265372258
    0.3893812747059983    0.4264285192975424    0.4594086372095522
    0.5349039729191072    0.4930745875202971    0.4537375750118262
    0.4836578876021951    0.6519277384902972    0.4479672431357075
    0.5932192150939744    0.4054476137832729    0.4699767092019394
    0.5643732918655697    0.6196047266847726    0.4204264411335468
    0.6297985055260276    0.4874789023072059    0.4383377973491985
    0.4594161602259196    0.3700992050536037    0.4342045644918981
    0.6468597457252492    0.5776869876607854    0.4136130728931145
    0.4883428308002363    0.5708071376284849    0.3977054497808120
    0.5480207952019258    0.3451056471105245    0.4111065104531213
    0.3358891712550438    0.4658867398640940    0.3917511235775523
    0.4131556570977277    0.5171884039463831    0.3946402629231402
    0.5706495816357282    0.4349626714396239    0.3814639177897979
    0.5738419702177258    0.5334892141514734    0.3753175806678197
    0.4154117721401611    0.4235520028563869    0.3661395870246424
    0.4925734787606550    0.4828580549729762    0.3606056858892399
    0.4969581516396389    0.3886790835332256    0.3456057540274550
