Au44 rank 15
1.0
   29.6430202342066735    0.0000000000000000    0.0000000000000000
    0.0000000000000000   30.3869065803443235    0.0000000000000000
    0.0000000000000000    0.0000000000000000   28.8187196630597953
  Au
  44
Direct
    0.3877362501365399    0.4566525833119902    0.6175890527736807
    0.4789442536143544    0.4744505839382852    0.6399363998079496
    0.4416908219864073    0.3928898700952111    0.6531486308025042
    0.5725650265161524    0.4796171547417846    0.6330570467893321
    0.5308635887171085    0.3972642068519864    0.6269832666304670
    0.6651671863452798    0.4763049169456680    0.6116621711209775
    0.4769049558636143    0.3312902684404839    0.5922791255567567
    0.4264281289643189    0.5391506547158516    0.5967147439278960
    0.5192650545595369    0.5444750811383232    0.5920449359435773
    0.3365624358958790    0.5223128125146478    0.5776039310707787
    0.6080338696714029    0.4162005887193079    0.5710558508794449
    0.3499551531417653    0.4448751123854978    0.5301984399672430
    0.6087911809219924    0.5337019145869960    0.5661714630711608
    0.3972381661055319    0.3750270529865637    0.5693339915367676
    0.5202109608012474    0.4572854057776753    0.5485938563147637
    0.5423463470618559    0.3639145828731028    0.5334671043635792
    0.4698360838822357    0.6077923382875979    0.5491597495813889
    0.3752372316170730    0.5992849066068635    0.5418152499427050
    0.5555894179319125    0.5868365545805498    0.5146738049254233
    0.6619237802678917    0.4712142953720643    0.5161009638966302
    0.4661731684390192    0.5224928781679293    0.5050511230995922
    0.4577568390315367    0.3385929459059053    0.5009473013114802
    0.3654476412841247    0.5247266322891802    0.4855474997642589
    0.5171355926233161    0.4645917290117553    0.4543733103891572
    0.3709628476322178    0.3705278989224138    0.4771811044156145
    0.5983013654844209    0.4101679216233920    0.4756151721634356
    0.6279788082021793    0.5451176118411756    0.4718035380550382
    0.4223215669218351    0.6714949265682492    0.5052679025125617
    0.4410027821305214    0.4339942907680897    0.4999249120504662
    0.5229579732025450    0.3682539820901004    0.4384358516008006
    0.5785542691360454    0.6077000653923634    0.4246457525888352
    0.4188764902316061    0.5937935896983764    0.4554032177495187
    0.6481635947961537    0.4684284575083593    0.4229849961174680
    0.3593978944637271    0.4510373956806981    0.4323445410479936
    0.3516699254113889    0.3751991235419584    0.3807761533431824
    0.5000511562788154    0.6427599008574828    0.4622847770036478
    0.4364434795978935    0.3565228217014572    0.4092876978546210
    0.5746681884364813    0.5191820519056696    0.3964744088828955
    0.4184478533802812    0.5162154959097522    0.4057191517040591
    0.5734905735932537    0.4277810355599206    0.3833776233209684
    0.4962428042147888    0.5641223465367264    0.4108143601148460
    0.4155652060963173    0.4367151125402432    0.3564610781781880
    0.4945609635318027    0.4832291795856927    0.3620736439191208
    0.4962621497951202    0.3921704616841303    0.3474135777674238
