Au44 rank 19
1.0
   28.8716557899892550    0.0000000000000000    0.0000000000000000
    0.0000000000000000   29.2432113713847528    0.0000000000000000
    0.0000000000000000    0.0000000000000000   28.1542475452688450
  Au
  44
Direct
    0.5745911988961780    0.5024110029529409    0.6427910169763216
    0.6376580579465742    0.4311024353131914    0.6333072227588687
    0.5452453814687465    0.4119327408168688    0.6344393386968302
    0.4790788319002238    0.4821370938636647    0.6348905767152989
    0.5081477704703007    0.5717559678540891    0.6356446165994232
    0.4535042297141447    0.3907741799477490    0.6276696756138702
    0.6104928998102269    0.3484794873329670    0.5983061233736988
    0.5380808886231476    0.6584414818189891    0.6077177320748011
    0.3644249342084976    0.3690934257928393    0.6108592777290188
    0.5952374325898707    0.5827417832404138    0.5948756018733011
    0.3871176697361248    0.4616392187199970    0.6116520339922805
    0.4178335713936445    0.5493331452498165    0.6043997105346259
    0.4467378124195836    0.6381239789947782    0.6009519554155440
    0.6420876852664520    0.5010104361069666    0.5673143532890005
    0.5188430233475603    0.3436372053179957    0.5696895956624933
    0.5472164612968036    0.5114493490762142    0.5468896556215866
    0.6560234190059434    0.4110346845637418    0.5384574951934329
    0.4936912081372378    0.4323985176282381    0.5400592145722142
    0.4265008604722791    0.3563000068218963    0.5375404285788274
    0.5934804419749288    0.6529217237917422    0.5292873140176541
    0.3662316627771512    0.5139246918639877    0.5291880440937272
    0.3533717599303789    0.4187601725775219    0.5282279877941706
    0.5909634688741525    0.3427131298756751    0.5048864894756625
    0.4963356886535650    0.6503824627200584    0.5164628852955744
    0.4143934504674019    0.5996873066855710    0.5192039459326513
    0.4601228388241808    0.5166112157937198    0.5090723194153350
    0.6196151803288380    0.5668443002414966    0.4992355017015889
    0.6358782233246698    0.4781495015033410    0.4716254230154778
    0.4979160238772846    0.3529472001696654    0.4726650984613356
    0.5295984660721644    0.4752505296538072    0.4599640554110048
    0.6516862113403018    0.3889049765475224    0.4444683781277665
    0.4190669928185636    0.4030821413428889    0.4539235606866335
    0.5585576424898482    0.6196375570937206    0.4467058620169579
    0.3479853332032768    0.4662153880614705    0.4458582872162043
    0.3922021669814413    0.5494008170405668    0.4393974778130484
    0.4623419439471845    0.6127806704743338    0.4338638070108533
    0.5704633960638257    0.3524790174352919    0.4110007679884388
    0.5904703363224743    0.5376619396880733    0.4099652885619862
    0.5903526418689120    0.4437441311047068    0.3910189804572232
    0.5132837202476856    0.4977913902796353    0.3602687343043727
    0.4379601909340604    0.5601571680267513    0.3545945637248857
    0.4956332988428645    0.4099029095953522    0.3932021313768697
    0.5276156194101383    0.5904946367470545    0.3615377557506151
    0.4246384732025059    0.4728819355898141    0.3874392880851297
