Au44 rank 5
1.0
   31.1700027383621112    0.0000000000000000    0.0000000000000000
    0.0000000000000000   28.1218110927728269    0.0000000000000000
    0.0000000000000000    0.0000000000000000   31.8771493018623602
  Au
  44
Direct
    0.5188078898594578    0.4396694183020265    0.6875267674243842
    0.4359315449225106    0.4306144791772765    0.6550266199037348
    0.4880963891144456    0.5096425631306506    0.6340407152238400
    0.5740561352553126    0.4771924916076360    0.6290110580797312
    0.3571637049416901    0.4262124556063244    0.6197020188409682
    0.4028064548172851    0.5120299163804611    0.6098953737524220
    0.5081265568689369    0.4115883202601900    0.6045972687007680
    0.5442795203668171    0.5518179921500127    0.5776724605944044
    0.4261158560622304    0.3944452238851759    0.5711886547942578
    0.4579269935893368    0.5813061427130346    0.5815255605211507
    0.6287331645116652    0.5139807057830812    0.5708564072633207
    0.3726487689518682    0.5736466845472038    0.5471439002393576
    0.3228675923456884    0.5001234024872286    0.5738878436838653
    0.5667824879055653    0.4446966967169103    0.5458343459123901
    0.4744639435224449    0.4817799472227676    0.5487680079131039
    0.3495075413190418    0.4208157298475646    0.5326293412549608
    0.4990994698170155    0.3837076836627052    0.5216444332177939
    0.5134051417355112    0.6185606722136338    0.5197872363493503
    0.5972541317987423    0.5852019194801104    0.5142292026754787
    0.4272658658384855    0.6429419428912914    0.5207180866509059
    0.6806220131353717    0.5510780477191750    0.5098688432178622
    0.4145098864611078    0.3774425500937880    0.4864939670934490
    0.4453934378791284    0.5479911925822646    0.4913291662232754
    0.6179015188143202    0.4871546360549208    0.4847872105460123
    0.3363955891879378    0.5114142661640017    0.4888349492893748
    0.5308809433155404    0.5210318079284568    0.4855727136234599
    0.4632881288691761    0.4612864981526843    0.4631140335573578
    0.5552070359605265    0.4221578698045584    0.4608531489142961
    0.5525395174205869    0.6091637821755841    0.4414807055550007
    0.3478588450754374    0.4260623995100911    0.4479442683690651
    0.6371815863765408    0.5675193175367712    0.4353316665260833
    0.3763450330148595    0.5949672971848745    0.4589042992766783
    0.4869365122348210    0.3654597093758976    0.4377152272628245
    0.3757053140868437    0.5078352843755515    0.4119451664194969
    0.4652369287207634    0.6342966990464508    0.4440554069734687
    0.5899736922849484    0.5833994572464207    0.3647932616324519
    0.5762089051239704    0.4976968961815827    0.4077762618458803
    0.4195425294158431    0.4140114116459522    0.3993252523241424
    0.5048904181064732    0.6141304514682633    0.3699539542537867
    0.5074084397022138    0.4393755197421396    0.3844402879881737
    0.4386916182449181    0.4941282174562736    0.3537764478950535
    0.5242510953917043    0.5218555674555340    0.3422598331736212
    0.4189286175930980    0.5851539334367686    0.3833382260365964
    0.4594986853938822    0.5739146917654161    0.3060071310428570
