Au44 rank 4
1.0
   28.8588828902059795    0.0000000000000000    0.0000000000000000
    0.0000000000000000   30.2932008036059948    0.0000000000000000
    0.0000000000000000    0.0000000000000000   30.3549696252437933
  Au
  44
Direct
    0.3691091690193826    0.5355621325766284    0.6673616338543907
    0.4555640867848603    0.5703667543126958    0.6746319575327459
    0.4383468857842072    0.4856411329374153    0.6323754783871361
    0.5421716386604942    0.6074695334649158    0.6721116086218049
    0.5277215608052219    0.5209093210367166    0.6403383997301583
    0.5756352098673739    0.6585825576034167    0.6024449768540685
    0.4064482055906711    0.5676202103718339    0.5898601189749380
    0.5092780975728423    0.4410660094441369    0.5961481492499463
    0.3510287590354036    0.4907030634562434    0.5892611790448565
    0.5934954133427532    0.5717295826031296    0.5956053686811057
    0.4893009663913904    0.6120429539886979    0.5971271653320903
    0.5942447321849897    0.4823538266705519    0.5832942992636652
    0.4200510014888556    0.4307341452636297    0.5619471973867814
    0.5820193396553582    0.3952269558538462    0.5601439360037218
    0.6514328121115573    0.4475250135207791    0.5176312401680191
    0.6540267333619806    0.3561247665292015    0.5151861647786456
    0.4901033365104595    0.3789975776214535    0.5305382858560244
    0.6199923742388527    0.6263786382007527    0.5265285960562439
    0.5632449901079489    0.3328493749530400    0.4944825905897011
    0.5258965014811285    0.6495991181958714    0.5235780381275333
    0.3449145677468167    0.4500166634404867    0.5097749703609925
    0.6368023724885394    0.5369304196581076    0.5203620793839384
    0.5139584470485590    0.5328342463742010    0.5482739405139302
    0.4465726884012491    0.5990636815253508    0.5144559216219932
    0.4543411237819669    0.4928339260719186    0.4900724536491669
    0.3732544340215350    0.5387400119169361    0.5091497544839916
    0.5416211836419804    0.4578644841935167    0.4967831926588812
    0.4203018235807519    0.4075382569364879    0.4702441482784497
    0.6054577638767149    0.4017705105364246    0.4496623089802500
    0.5072157359995887    0.3830121121686981    0.4392156233865886
    0.5834965357008056    0.6683139897725360    0.4534924539307429
    0.6156935075758758    0.5829296063398804    0.4433856409166340
    0.4952038680591618    0.6265569964005926    0.4412487287124845
    0.3775171283516002    0.4813811368869130    0.4306978638727041
    0.6194535788392617    0.4918504301021035    0.4415043912189233
    0.5290136361623660    0.5402802085258872    0.4579798183639658
    0.4210210139221134    0.5664999607627361    0.4334818198174297
    0.5516034050726256    0.4471300559679475    0.3904062206170033
    0.4529129780088964    0.4383390304408832    0.3893466106918199
    0.5642991781966136    0.6254754142790969    0.3758968314540281
    0.5738457902555784    0.5350070404378058    0.3732252134821421
    0.4851213995269069    0.5759187357643631    0.3645386865121275
    0.4132320177971721    0.5164739416455341    0.3561397623832820
    0.5011687709868943    0.4924993896520927    0.3312784403397809
