Au44 rank 8
1.0
   28.6610520854590405    0.0000000000000000    0.0000000000000000
    0.0000000000000000   31.0877351057471714    0.0000000000000000
    0.0000000000000000    0.0000000000000000   30.1362371142084484
  Au
  44
Direct
    0.3847997596031867    0.5141430749925421    0.6673547110560883
    0.4272974474856103    0.4373294982684565    0.6481718757233981
    0.5222840257030302    0.4395363045997019    0.6119219959831834
    0.4733243416469992    0.3652130364669829    0.6268277265336092
    0.4715959126408276    0.5142401479585776    0.6242538412922718
    0.5570506225089480    0.5167534036031417    0.5828771712089003
    0.3645838689300440    0.4764450771059200    0.5872175346056950
    0.3978687074230108    0.5638400841696387    0.5913771195076116
    0.3960808407618278    0.3941600713593177    0.5718894845810074
    0.4512376083687241    0.3231030913267378    0.5515909359851306
    0.4905212316093207    0.5771823585508611    0.5610235529679004
    0.5363461928516128    0.3696294090650658    0.5560287016930985
    0.6007757437957844    0.4391989017356789    0.5528851398861045
    0.6448838457424271    0.5171089218678933    0.5444397987480142
    0.5132345451722456    0.4511199926726730    0.5130467798873123
    0.3469355524967753    0.5357461218890026    0.5160489341381149
    0.5787298932501718    0.5790807106458531    0.5210398274577738
    0.4126090049195137    0.6056666467736552    0.5134161959397061
    0.3605078389741874    0.4448629755534715    0.5028008640491956
    0.4383908139849235    0.5019732954667498    0.5300547966904782
    0.5038893398041738    0.6276786854736562    0.4884400734234963
    0.4007595865254904    0.3642462151091329    0.4868625725593577
    0.4967161812411117    0.3443993734069108    0.4762869253745853
    0.5799091095737877    0.3950106443032039    0.4754956683297382
    0.5061908536325164    0.5329422866682090    0.4723320656641186
    0.6238103258804309    0.4745633144861129    0.4678453310284932
    0.6545459929539381    0.5627370060833764    0.4659330302213669
    0.3510907843314069    0.5923112627556312    0.4449107179250040
    0.4482519623415087    0.4654990707341610    0.4467564523826982
    0.5904095911228329    0.6240279467297295    0.4405171214730068
    0.4295175519682107    0.6406379219815306    0.4280953763687499
    0.3555732924601028    0.5037887449444123    0.4319671134435347
    0.5187051669128001    0.6784959089819133    0.4159427051388166
    0.3713089704814720    0.4156964051291447    0.4176012241370826
    0.4404266540297814    0.3518365172346614    0.4029858481566897
    0.5825382151374996    0.5364567598247181    0.4120222840045547
    0.5391289810809127    0.3631181950674713    0.3990215233487186
    0.5075367447064758    0.5938838915554100    0.3964689012758415
    0.4179615426365143    0.5602934309159451    0.3872748829853577
    0.5619532196243927    0.4499240227467333    0.4032198160209277
    0.4973357763085419    0.5099072530878002    0.3746914430725219
    0.4054679034221065    0.4791379882116111    0.3555203181331379
    0.4812726725387313    0.4240025938876539    0.3620678256670039
    0.3957231083731699    0.3926839919666514    0.3326860174620910
