Au44 rank 1
1.0
   28.2381788819193105    0.0000000000000000    0.0000000000000000
    0.0000000000000000   30.0226297806752314    0.0000000000000000
    0.0000000000000000    0.0000000000000000   31.0184009253262758
  Au
  44
Direct
    0.5484139468152145    0.4858893186619331    0.6801339511943414
    0.5349075669443520    0.5733363333609133    0.6590230768838742
    0.5946720792108250    0.5186726095483304    0.6059009027725224
    0.4720493488988051    0.5072644775091674    0.6274752072466978
    0.5087910512130134    0.4214634323921168    0.6231986149002720
    0.6047997876768038    0.4311243637007320    0.6316767235698528
    0.5235678086473927    0.6605443527162707    0.6305228313851374
    0.4666186768105959    0.5958585297213342    0.5962154461405039
    0.4206145473634706    0.4402439812441167    0.5871781429508218
    0.5694168977151114    0.6022513072831831    0.5763997868896122
    0.5748823541463366    0.3787163090777872    0.5665987869171369
    0.4102583935801218    0.5311278887698508    0.5612267365810181
    0.4779369647893942    0.3721359574708519    0.5538515579483422
    0.6133322856126572    0.5424390661299202    0.5205172365986587
    0.5131396466686587    0.5283528174108303    0.5442230786869887
    0.6327358738131592    0.4554234716892524    0.5494833016001676
    0.3537633844027895    0.4687304681987424    0.5234556019390556
    0.5030959187158117    0.6681159643434147    0.5437849840227532
    0.4413922980348083    0.6021211108381440    0.5098587161643408
    0.5546493591291012    0.4666854574142005    0.4871250145735336
    0.5394179826990967    0.3369057866020800    0.4954879279710732
    0.3905214179840193    0.3846590151420953    0.5177347101057130
    0.5512101079326170    0.6093889580671071    0.4891212561430888
    0.4601815342102988    0.3725907574407389    0.4577757151557554
    0.6159986770666405    0.3920010931261662    0.4851995116252395
    0.3915493957042230    0.5311674650575851    0.4712293184977856
    0.4803919028122429    0.6694872643110760    0.4580981690335195
    0.6480174051056818    0.4792837269777731    0.4619620404033181
    0.4623320038955633    0.4589463552153343    0.5051893682715487
    0.4959441325617462    0.5325060166507380    0.4539621494263757
    0.3925960419645024    0.4397348576319321    0.4425495316713297
    0.5968502969990440    0.5524456626203373    0.4329489508536098
    0.6347445634047273    0.4108870996641590    0.4002169360645226
    0.6367800332319821    0.4971053671256547    0.3725562748573748
    0.4278776255548424    0.5968172481601390    0.4208728710997763
    0.5459400550353368    0.3788096943066623    0.4174534384392873
    0.5284134443086137    0.6095567935833093    0.4022043133852028
    0.4675961311382040    0.4244852586108077    0.3844965409895484
    0.4247281276514572    0.5083543836843541    0.3899859183102039
    0.5548583595789349    0.5381641354133883    0.3523448997224786
    0.5569215900789264    0.4435008814045556    0.3551062789681151
    0.4589669987767236    0.6646861168787096    0.3700905914112849
    0.4653920073462572    0.5770658554941400    0.3379310776301213
    0.4811735387110768    0.4882333710141711    0.3201881705198237
