Au
 1.0000000000000000
    24.3274164086040088    0.0000000000000000    0.0000000000000000
     0.0000000000000000   24.3274164086040088    0.0000000000000000
     0.0000000000000000    0.0000000000000000   24.3274164086040088
 Au 
  26
Cartesian
 12.9406061106724106 12.1209582553521624 16.1130567405950593
 10.9160195469639980 13.8210541275804530 15.2073868268443029
  8.5004698464640001 12.4231471055596181 15.0420143373291104
 13.6332349649931377 14.4600713060147772 14.8858734030508231
 10.7849528722344417 10.9672961338930559 14.8204679408832618
 15.1625244192909072 12.1485059133778925 14.4175211209839489
 13.2387788725329276  9.9988288587950720 14.3665149428841747
 15.8269465621400105  9.5340438092056701 13.6810214129701002
 14.0946232843448236 16.4835068881456124 13.0943709794954710
 11.7286698195908876 15.0915478390833471 12.8817692491819979
  8.7130151748040028 10.5858522295636490 12.9752575958544938
 11.1145554027191054  8.9781314110372268 12.9574999880534243
  9.7959681125175102 13.1505617392541954 12.7238614506350523
 14.7223679114352990 13.9140979857633056 12.3266743239479499
 13.8189274259955468  8.5734372727124004 12.0262786171221006
 14.7020718730479096 11.2167004458901260 11.8144122658680928
  9.1748032631656713  8.8522275885396446 10.9690871049201686
 13.3022501394727986 15.6435197348069170 10.6038031023053829
 11.0044925574413455 13.9350350942872652 10.4593261671159681
  9.5987129377979770 11.5661933583669718 10.4504416975574248
 11.7290284524757435  7.8439095204583911 10.4939834554557123
 13.6870668692444113 12.8767307372129984  9.9640623198656932
 13.0743795220655521 10.1955111651338299  9.8079828496848442
 10.5662323166715897  9.5936942164643391  8.6993946532911437
 11.4878481148231355 12.0913817234300538  8.3629520529302006
 12.4628056996229848 14.6413876877987654  8.2143596680089477
