Au
 1.0000000000000000
    27.9985468689999983    0.0000000000000000    0.0000000000000000
     0.0000000000000000   28.3925184540000011    0.0000000000000000
     0.0000000000000000    0.0000000000000000   27.7437401769999994
 Au 
  35
Cartesian
 16.8104100000000010 15.1076800000000002 16.8619699999999995
 14.2766699999999993 14.3682200000000009 17.5584999999999987
 12.2411600000000007 16.2464000000000013 17.1923400000000015
 11.6155500000000007 13.6034000000000006 17.7597600000000000
 14.7813700000000008 16.8595199999999998 16.3200299999999991
 16.1168399999999998 12.4337900000000001 16.7158400000000000
 13.3584800000000001 11.7998799999999999 16.7154099999999985
 10.0283099999999994 17.6239799999999995 16.2160599999999988
 10.0164799999999996 14.8869600000000002 15.8753200000000003
 15.0649300000000004 10.0077700000000007 15.5908300000000004
 10.8356999999999992 12.2049800000000008 15.4881499999999992
 12.5277700000000003 18.1025700000000001 15.1373800000000003
 12.7271800000000006 14.3826999999999998 15.0208999999999993
 14.8256200000000007 12.8280300000000000 14.2066400000000002
 12.7316800000000008 10.5059000000000005 14.2639099999999992
 17.6960799999999985 13.8150099999999991 14.6366700000000005
 17.2913800000000002 11.1136099999999995 14.5099999999999998
 16.8815400000000011 16.4853300000000011 14.4654600000000002
 10.6740800000000000 16.5767699999999998 13.7145899999999994
 14.9860699999999998 18.4132500000000014 14.0557400000000001
 10.0967699999999994 13.8939100000000000 13.3136100000000006
 10.4175500000000003 11.1595700000000004 13.0059900000000006
 15.1399000000000008 10.3938799999999993 12.7739399999999996
 13.8839799999999993 14.7882300000000004 12.6394800000000007
 12.9387100000000004 17.5284399999999998 12.4173799999999996
 17.0111899999999991 12.5215200000000006 12.1815300000000004
 17.8076200000000000 15.1507699999999996 12.2408099999999997
 12.7403300000000002 11.0934899999999992 11.5033600000000007
 15.7295300000000005 16.9164500000000011 11.8963599999999996
 11.3462999999999994 15.4389000000000003 11.3198799999999995
 10.6504100000000008 12.8239000000000001 10.8354800000000004
 15.1394599999999997 11.7227999999999994 10.3608499999999992
 15.8088200000000008 14.4197199999999999 10.4820799999999998
 13.1354900000000008 13.5433100000000000 10.0305999999999997
 13.7195199999999993 16.2334199999999989 10.1057900000000007
