Au
 1.0000000000000000
    27.7903147590000010    0.0000000000000000    0.0000000000000000
     0.0000000000000000   28.3727913359999988    0.0000000000000000
     0.0000000000000000    0.0000000000000000   28.6705440309999986
 Au 
  35
Cartesian
 10.7473600000000005 12.0847700000000007 18.7171899999999987
 13.0199700000000007 13.6022999999999996 18.5539999999999985
 15.2320499999999992 15.0854999999999997 18.3272300000000001
 17.5501399999999990 16.5584200000000017 18.1341099999999997
 12.7920300000000005 16.1506100000000004 17.5107299999999988
 12.9360199999999992 11.0077599999999993 17.5022599999999997
 15.3752200000000006 12.4205600000000000 17.6251500000000014
 10.7251600000000007 14.3355399999999999 17.1219399999999986
 15.1844800000000006 17.5342500000000001 17.0187600000000003
 17.4075400000000009 14.1329399999999996 16.8329099999999983
 15.1372000000000000 10.0312999999999999 16.2953299999999999
 12.8680599999999998 18.3413900000000005 15.8541200000000000
 10.7680600000000002 11.8152000000000008 15.9306999999999999
 10.9319199999999999 16.4632299999999994 15.4483200000000007
 17.2126899999999985 16.5424199999999999 15.4026499999999995
 16.9938900000000004 11.8568700000000007 15.4216599999999993
 12.8321000000000005 10.3314000000000004 14.8014200000000002
 10.0056799999999999 14.0330899999999996 14.4788999999999994
 15.0120400000000007 17.7787700000000015 14.2285000000000004
 17.7704099999999983 14.1829699999999992 14.0853500000000000
 15.3893400000000007 10.4094300000000004 13.6112000000000002
 12.3948499999999999 17.5357599999999998 13.2894199999999998
  9.9704599999999992 16.2978899999999989 12.8722100000000008
 11.0864200000000004 11.7757900000000006 13.2275799999999997
 16.9505400000000002 16.4924999999999997 12.7427799999999998
 17.5528599999999990 11.8053100000000004 12.7327499999999993
 13.1277500000000007 10.3711699999999993 12.0606500000000008
 10.0923300000000005 13.8018500000000000 11.7145799999999998
 12.1562599999999996 15.6132799999999996 11.3005600000000008
 17.1058799999999991 14.0702300000000005 11.3463100000000008
 15.1830400000000001 12.0564599999999995 11.3294300000000003
 12.5536100000000008 12.8541500000000006 11.0563800000000008
 14.4668899999999994 17.0886400000000016 11.5918600000000005
 14.5382400000000001 14.5847200000000008 10.3654299999999999
 16.6356600000000014 16.4069299999999991 10.0252499999999998
