Au37 rank 14
1.0
   28.5775834701958580    0.0000000000000000    0.0000000000000000
    0.0000000000000000   28.0634477214148852    0.0000000000000000
    0.0000000000000000    0.0000000000000000   28.3587149423233207
  Au
  37
Direct
    0.4509380804672282    0.3775402965275346    0.6493011686167951
    0.4798530472322685    0.5438063553504127    0.6309295119999411
    0.4526603679854170    0.6311791889620405    0.5894326235264873
    0.5148710295597519    0.4487736163818163    0.6336273700961762
    0.4179285551928074    0.4654195979969814    0.6200881011185719
    0.3991896835829505    0.5520572749502066    0.5765809268156078
    0.5717146967620327    0.5219180686917899    0.6054864700509789
    0.5450984039557948    0.6150187171684872    0.6070212890892763
    0.5216075911098458    0.3606687768339182    0.5849738425375425
    0.5927538668286465    0.4306190314047346    0.5774007764666821
    0.4329269730187034    0.3903636740594439    0.5543304988473063
    0.4821705656918804    0.4905221676673645    0.5453302134117115
    0.6484483608605457    0.5065123943476280    0.5500868289112963
    0.4252075503830216    0.6199601471111600    0.4982382072011345
    0.3782742796984418    0.4681726583428738    0.5289355186059103
    0.5963404423727435    0.5858897766355953    0.5313563893481650
    0.3524920832648458    0.5577951967902596    0.4933595412285094
    0.5876973219797883    0.3553244992861342    0.5160847138524953
    0.5054273084162074    0.5514794152041246    0.4743839067969348
    0.4969646493886148    0.3584371018781175    0.4871414182060455
    0.5182537059658595    0.6433128773510187    0.5156779391787528
    0.6325927158127304    0.5340230955846090    0.4576090400919717
    0.5162536625199877    0.4576169272588906    0.4640592903888208
    0.4189410862948059    0.4103495099660475    0.4605380897407514
    0.5790695948667380    0.6151833355628396    0.4409716521876024
    0.5752190628151117    0.3873892784964571    0.4244822788129398
    0.6314527820515804    0.4373466137068208    0.4857594832617612
    0.3618799440525905    0.4825977044315288    0.4329818009648682
    0.4839171599711507    0.6368409805816192    0.4219115552208242
    0.4152881387929495    0.5644644490117391    0.4176092496254408
    0.4844946516393921    0.3863257134253974    0.3929368876678974
    0.5941996005127237    0.5491951014511873    0.3666405009945004
    0.4440305086133753    0.4754441519353534    0.3853373468230675
    0.5379430402978557    0.4649180728774143    0.3639644959419783
    0.4961865144902602    0.5548487392363610    0.3641053242157856
    0.5503192583555495    0.6354079760077905    0.3508421804240043
    0.6290427781533798    0.4625977863527157    0.3917940451469888
