Au
 1.0000000000000000
    27.8012899239999989    0.0000000000000000    0.0000000000000000
     0.0000000000000000   28.3423666899999986    0.0000000000000000
     0.0000000000000000    0.0000000000000000   28.3355690250000016
 Au 
  37
Cartesian
 13.2475699999999996 12.8687199999999997 18.1283700000000003
 15.7301500000000001 14.0480400000000003 18.3300599999999996
 10.8255199999999991 13.3875200000000003 17.0135599999999982
 15.7985399999999991 16.4011400000000016 16.9023299999999992
 13.4387100000000004 15.6762700000000006 18.3533499999999989
 15.2801299999999998 12.0132600000000007 16.4753399999999992
 11.0703999999999994 16.1202299999999994 16.9921100000000003
 13.3138299999999994 17.6299799999999998 16.3669499999999992
 12.5510800000000007 11.4109800000000003 15.8811599999999995
 17.1365499999999997 14.1208600000000004 15.9876199999999997
 10.1230399999999996 12.1116499999999991 14.6852199999999993
 15.6960999999999995 18.5958599999999983 15.2792800000000000
 13.5592799999999993 16.0591900000000010 13.5054900000000000
 17.0222699999999989 16.3566900000000004 14.3474799999999991
 11.0745799999999992 17.3940799999999989 14.5831000000000000
 14.5944500000000001 10.5826899999999995 14.2202199999999994
 15.1732899999999997 13.7810600000000001 13.9052000000000007
 13.2673699999999997 14.5804100000000005 15.7984399999999994
 17.1386600000000016 11.7332800000000006 14.4851700000000001
  9.8145799999999994 14.8932199999999995 14.8621300000000005
 12.0230800000000002 10.7423999999999999 13.2019199999999994
 13.2991200000000003 18.9343199999999996 13.9257000000000009
 18.2002500000000005 14.0839999999999996 13.3673599999999997
  9.8053000000000008 13.4952400000000008 12.3354199999999992
 15.5321499999999997 17.9355599999999988 12.5813400000000009
 12.4611800000000006 13.5148600000000005 13.4033400000000000
 11.9138000000000002 17.7732500000000009 11.8653999999999993
 14.2450200000000002 11.1729199999999995 11.5299099999999992
 16.5871400000000015 12.6986100000000004 11.4883400000000009
 16.6359500000000011 10.0463100000000001 12.3376199999999994
 18.9864299999999986 11.6190999999999995 12.4124199999999991
  9.7198399999999996 16.2327000000000012 12.4627099999999995
 16.3243100000000005 15.4346599999999992 11.7495399999999997
 11.8594399999999993 12.3376000000000001 10.8741299999999992
 14.0707799999999992 16.5899199999999993 10.6414100000000005
 11.7365200000000005 15.1028800000000007 10.9129000000000005
 14.2360699999999998 13.8425300000000000 10.6872399999999992
