Au37 rank 20
1.0
   27.7954848057050832    0.0000000000000000    0.0000000000000000
    0.0000000000000000   29.6141097507729576    0.0000000000000000
    0.0000000000000000    0.0000000000000000   28.8871499283297872
  Au
  37
Direct
    0.4941071819573392    0.4187824153075806    0.6006186458486986
    0.5083105025974941    0.5721197429853728    0.6059114070649976
    0.4753780152830091    0.4978189800602201    0.6513014265109878
    0.4004622344548485    0.4523788671654433    0.6115062928284619
    0.5638847809676214    0.4853780436478151    0.6130923927192042
    0.6048759421420965    0.5661679207273286    0.5916224365145143
    0.4138299660665830    0.5439054539905768    0.5902826322998191
    0.5901431212819431    0.4055774444670289    0.5696718059235093
    0.4490364650133200    0.6256915131331300    0.5515897317541065
    0.6279865927290560    0.4895124542090267    0.5388263497040190
    0.4227304770904904    0.4026193407777809    0.5352162180547867
    0.3694363209679315    0.4850050867562017    0.5286249093201602
    0.5477686802452412    0.6146848433575710    0.5285904305150076
    0.5290097183840720    0.4638781158205966    0.5169205684667998
    0.3755843391085449    0.5749306262917993    0.5064856393885516
    0.5112981410382378    0.3634163078261159    0.5237359995241048
    0.6041696073732681    0.3333033095389755    0.5109160339477437
    0.6363077452132461    0.5770479518564555    0.5026572724733872
    0.3922503238083366    0.6640534444475682    0.4838724350108442
    0.4786652377023746    0.5423926411072852    0.5103338188154655
    0.6164036429700173    0.4188973873437841    0.4753005654003540
    0.4807272946260838    0.6305033078276611    0.4579403764198093
    0.3641524875118616    0.4202052520240787    0.4612345458327339
    0.4778228092792884    0.4826289329318166    0.4410251266038023
    0.6193692459955352    0.5064974905799163    0.4444499261990121
    0.4519992717738981    0.3785416676957133    0.4477304460724981
    0.3675602567558872    0.5104357142812987    0.4370964216970606
    0.5664033716544337    0.5890022259683504    0.4377220394690758
    0.5509475007515345    0.3582252467206972    0.4340534794490650
    0.3959216865040544    0.5999329021199059    0.4143111394120131
    0.5728339602581060    0.4425328688375481    0.3921452522340058
    0.4883091645981886    0.5742585757722631    0.3813392767698515
    0.4116631098691733    0.4407829071008881    0.3808614191691141
    0.4956494663101910    0.3924837515490415    0.3643595970060654
    0.5750243056855617    0.5317339720582782    0.3638901121313030
    0.4069894453623442    0.5305194675897212    0.3531558709062130
    0.4932986125026091    0.4841155985788850    0.3440302940342639
