Au
 1.0000000000000000
    29.9982966070000003    0.0000000000000000    0.0000000000000000
     0.0000000000000000   28.5695912649999997    0.0000000000000000
     0.0000000000000000    0.0000000000000000   28.3201403979999995
 Au 
  37
Cartesian
 15.6302400000000006 14.4061400000000006 18.2418000000000013
 16.7524499999999996 11.9244199999999996 18.2176699999999983
 17.4814499999999988 16.5015900000000002 18.0689600000000006
 13.1498200000000001 14.6816700000000004 17.0963299999999983
 18.5075199999999995 13.9998600000000000 17.6404999999999994
 14.4550999999999998 12.2299000000000007 16.8318800000000017
 14.8696400000000004 16.8702700000000014 17.1009700000000002
 19.0126799999999996 11.4382400000000004 16.7429600000000001
 12.1958599999999997 12.6965500000000002 15.3731100000000005
 12.6339500000000005 16.7979999999999983 15.3749800000000008
 19.2909900000000007 16.1501100000000015 15.9504900000000003
 16.4947200000000009 10.5732099999999996 15.8128700000000002
 17.1335900000000017 18.0650699999999986 15.8204799999999999
 16.6046200000000006 15.1286900000000006 15.6182999999999996
 19.7944999999999993 13.5369399999999995 15.1860900000000001
 10.6450200000000006 14.9547600000000003 15.8385800000000003
  9.9611400000000003 13.1495700000000006 13.7899200000000004
 14.6006599999999995 18.5749600000000008 14.9109900000000000
 14.1722900000000003 11.0591100000000004 14.3370999999999995
 19.1356099999999998 18.1048000000000009 13.9754199999999997
 18.6386700000000012 11.1346299999999996 14.0681799999999999
 14.6368500000000008 13.9286499999999993 14.1913400000000003
 17.2815499999999993 13.7947699999999998 13.4376800000000003
 11.9790700000000001 15.0156100000000006 13.3520800000000008
 12.3143600000000006 12.3333300000000001 12.5870499999999996
 19.7619700000000016 15.5072200000000002 13.2818900000000006
 16.4913400000000010 18.0507799999999996 13.0351700000000008
 16.3612399999999987  9.9900400000000005 13.1122800000000002
 19.9974999999999987 12.8956900000000001 12.4731299999999994
 14.0535599999999992 16.7502600000000008 12.9078099999999996
 14.8337699999999995 11.7889999999999997 11.7075600000000009
 18.5579199999999993 17.2033600000000000 11.4370300000000000
 17.6536499999999990 11.8006300000000000 11.4338099999999994
 13.8652800000000003 14.4165399999999995 11.4147400000000001
 18.4281199999999998 14.5255600000000005 10.8886500000000002
 16.0462300000000013 16.1082199999999993 11.0949799999999996
 16.0343400000000003 13.5630400000000009  9.9938000000000002
