Au37 rank 17
1.0
   28.1557244942631186    0.0000000000000000    0.0000000000000000
    0.0000000000000000   28.9158981514935505    0.0000000000000000
    0.0000000000000000    0.0000000000000000   27.9478906428691580
  Au
  37
Direct
    0.4613613843430441    0.5060748285989044    0.6408182962520391
    0.4898110096499134    0.4148490288748685    0.6407674079305755
    0.5301558011493193    0.5739217512923933    0.6344863460426299
    0.5593818282762908    0.4830513012980286    0.6295519995260526
    0.3717927602883439    0.5257756207035952    0.6063933888027352
    0.4056209550366019    0.4371982257781023    0.5928184735051614
    0.4416368944811588    0.5911806317874254    0.5974891509669404
    0.5658993780984370    0.3995816217484989    0.5784994148535419
    0.5926281588036618    0.5500049048511086    0.5628916078296071
    0.6363255757267220    0.4659856900670531    0.5705574750290734
    0.4693796800122692    0.3687392855975384    0.5573339469944519
    0.5257039159911466    0.6160456615200872    0.5459559246923363
    0.4943412757698042    0.4669923632945641    0.5486497846859621
    0.3568632129027420    0.4841463158119861    0.5205304989469678
    0.3725291750163665    0.5805387244621730    0.5259087477990350
    0.3849276532133939    0.3914090482011011    0.5102401542783429
    0.4392306846534256    0.6538852259739788    0.5250580139813147
    0.5186545954007481    0.5311422319270834    0.4843505738571518
    0.5464901408891296    0.3485889981289638    0.4987127465039192
    0.6031637547988306    0.4247742171805485    0.4878948664449453
    0.6439228230125370    0.5128741728349130    0.4858510011385165
    0.5917364093397397    0.5972073759656977    0.4755089088729439
    0.4448876077426402    0.4738247573271906    0.4656351932126305
    0.4978337677068400    0.6254233747063729    0.4504802791010519
    0.3982274638925686    0.6248639718996470    0.4411761242881319
    0.3547873525522496    0.4420668151113951    0.4303515909670741
    0.4588189015477107    0.3473046398489315    0.4603028734250754
    0.3672059661228206    0.3486990811411372    0.4229251361380630
    0.6464133371975859    0.5631116164004689    0.4017411277642786
    0.3664997283120001    0.5365329801819427    0.4377304631264784
    0.5917162571584318    0.4803174886852098    0.4083678421819018
    0.5494407680636666    0.5655739292580786    0.3895455245497945
    0.4524436449708331    0.5658297632069804    0.3877323475977265
    0.5325764921277986    0.4054139053514705    0.4212782699812062
    0.4404392857932197    0.4063049639591208    0.3864638488123829
    0.5001234007150321    0.4826749227425773    0.3738504338170766
    0.4026039942380306    0.4900826044987561    0.3577354919075774
