Au37 rank 16
1.0
   28.2401567237141755    0.0000000000000000    0.0000000000000000
    0.0000000000000000   28.4877440582417591    0.0000000000000000
    0.0000000000000000    0.0000000000000000   28.8401589272266854
  Au
  37
Direct
    0.4476325248640570    0.3965489079344663    0.6535151286272947
    0.4195031566916435    0.4809106858486934    0.6112876256020191
    0.3544735858111255    0.4105282939510108    0.6253856481518325
    0.5163408812558660    0.4639215429072656    0.6284769237303093
    0.4841300712575450    0.5498788751784952    0.5913223865151310
    0.5827922103588993    0.5281313119476866    0.6010734845264513
    0.5168907850513393    0.3754530437466276    0.5891981739235120
    0.5947398348147959    0.4355054014185593    0.5734556497645740
    0.4216447026597014    0.3821432720012942    0.5601514687420645
    0.5534462596187057    0.6087942510823401    0.5585623267745025
    0.3577531980424422    0.4535243883212400    0.5378940587428005
    0.4646019615527284    0.6124328548662629    0.5176379356173583
    0.5842800343885307    0.3521181148187010    0.5260920112550296
    0.6473339643051180    0.5070266693428825    0.5307875794439267
    0.5512703665170812    0.5215268814302724    0.5059764954498689
    0.4790500771905180    0.4596026171832163    0.5307943091363481
    0.4010992310815466    0.5409807183051523    0.5389897065209800
    0.4900123801746950    0.3582388508173864    0.4967660532296637
    0.6302875951520261    0.4246101737434296    0.4821865944989936
    0.6210537241206446    0.5914655056414949    0.4897082705283330
    0.4679375500535689    0.5240989377911687    0.4571343641916953
    0.4101770969976433    0.4087127624361029    0.4664717357676645
    0.5422638625004317    0.6478404407378023    0.4715162222600563
    0.3895329195026739    0.5932450988073080    0.4602871423403787
    0.3699388698499291    0.4961750365029016    0.4530409963939094
    0.5665471617711190    0.3584306335881844    0.4331280682614669
    0.5294520029079157    0.4488942752982680    0.4477706295797853
    0.6329466608605202    0.5117258239366017    0.4349619969920114
    0.4742803072848010    0.3734282522760239    0.4029595950191538
    0.5692966897123446    0.5833627758768243    0.4060086169199793
    0.4037163123898715    0.5504580206499183    0.3763010273423466
    0.6136877696511889    0.4279000820808243    0.3880537814925660
    0.4316677169474539    0.4582181018477690    0.3846211352785561
    0.4747116132721376    0.6124337662386108    0.4126213920617048
    0.5230467249881406    0.4388980186500144    0.3502047381313683
    0.4967987175788424    0.5336774394962364    0.3570412724177957
    0.5907357224615321    0.5119886938799787    0.3487228666300634
