Au
 1.0000000000000000
    28.1131337690000009    0.0000000000000000    0.0000000000000000
     0.0000000000000000   27.4195220219999989    0.0000000000000000
     0.0000000000000000    0.0000000000000000   28.1307983280000009
 Au 
  37
Cartesian
 14.5441299999999991 14.8015799999999995 18.6139399999999995
 15.0789100000000005 17.2317399999999985 17.4392800000000001
 15.8658500000000000 12.5070300000000003 17.9629699999999985
 12.7509700000000006 13.0533900000000003 17.4433900000000008
 14.0831400000000002 10.7085200000000000 16.9383400000000002
 17.0458800000000004 15.2316500000000001 17.3677700000000002
 12.6988199999999996 15.8821700000000003 16.8426399999999994
 18.2155099999999983 12.8680400000000006 16.6156900000000007
 14.8761500000000009 14.1051000000000002 15.8270499999999998
 11.0430399999999995 14.0813500000000005 15.5516400000000008
 16.5471499999999985 10.9152199999999997 15.6737300000000008
 12.1293100000000003 11.5453600000000005 15.1563199999999991
 16.7106700000000004 17.1421899999999994 15.2593700000000005
 13.9589999999999996 17.6221099999999993 14.9776199999999999
 14.6061800000000002 12.4567800000000002 13.6380199999999991
 14.2768499999999996  9.7535200000000000 14.3739200000000000
 18.6761400000000002 15.1048500000000008 15.0771499999999996
 11.3406099999999999 16.7426500000000011 14.6405600000000007
 18.2911099999999998 12.3273200000000003 13.9793500000000002
  9.3509499999999992 15.1768599999999996 13.5555299999999992
 16.3130600000000001 14.6166699999999992 13.5507600000000004
 16.5751999999999988 10.4029100000000003 12.9512699999999992
 18.1791899999999984 16.9675000000000011 12.9647199999999998
 12.7540600000000008 17.7839600000000004 12.4317799999999998
  9.9803899999999999 17.6883300000000006 12.4019200000000005
 10.9926200000000005 12.9924999999999997 13.0410799999999991
 15.4721200000000003 17.4062500000000000 12.6683800000000009
 12.5494900000000005 10.8161299999999994 12.4804700000000004
 19.0223499999999994 14.4270300000000002 12.3598099999999995
 13.4842200000000005 15.0024599999999992 13.6101899999999993
 11.3952200000000001 15.4352300000000007 11.6646199999999993
 17.2196500000000015 12.6305599999999991 11.3846699999999998
 14.0420300000000005 15.8321500000000004 10.8480100000000004
 16.8314500000000002 15.5813400000000009 10.9308499999999995
 14.8300599999999996 11.2501099999999994 10.9966899999999992
 12.8855199999999996 13.2351899999999993 11.0223600000000008
 15.2860999999999994 13.6661800000000007  9.7261399999999991
