Au37 rank 2
1.0
   27.9263342749921080    0.0000000000000000    0.0000000000000000
    0.0000000000000000   29.0276696163590628    0.0000000000000000
    0.0000000000000000    0.0000000000000000   28.7623698648395631
  Au
  37
Direct
    0.4712567274180555    0.4237928809422487    0.6503698174301213
    0.5211379484832699    0.5036223135280232    0.6270914720487253
    0.4179630953846298    0.4999402882108785    0.6277708022840358
    0.5652371899243961    0.4155209297203508    0.6235928375490825
    0.3560115886300982    0.4935106823393952    0.5539425096803049
    0.4666159261832204    0.5790588143449236    0.6014032020581096
    0.6117894705952461    0.4915669499055111    0.5888413147712823
    0.4043006189935739    0.4130475451114903    0.5810669593547749
    0.4910655661204830    0.3639405348122539    0.5778374270638156
    0.5569651435025222    0.5651757740073364    0.5602417867153444
    0.5867373686690714    0.3571627753540178    0.5517037402527120
    0.4619059340574521    0.5035437602585306    0.5379804968943739
    0.5397067920751172    0.4445725350331189    0.5308990743544902
    0.3969866509239140    0.5772715063103052    0.5300449560994519
    0.6410571899266219    0.4312693458150678    0.5194279151963237
    0.4867317148462012    0.6198626553814238    0.5180081019963034
    0.3595878798406733    0.4202543591308285    0.4937207753929990
    0.4229702413797657    0.3501904055294784    0.5113100854860192
    0.6211822067229337    0.5216996713968567    0.4981041038824086
    0.5179278578730149    0.3435324765689919    0.4837612627489820
    0.5226594363892503    0.5119651043268332    0.4622403700576539
    0.5741931186824379    0.6020003838633196    0.4743373945118732
    0.6125003943442600    0.3619572220678699    0.4587336572233902
    0.4628374237918350    0.4351320886524219    0.4721919423097394
    0.3777242018075644    0.5114485350506388    0.4607784526734012
    0.4365491786212480    0.5855581429677649    0.4421555254250476
    0.5051326167751893    0.6563345945153632    0.4310614113442801
    0.6123378016899672    0.4524091794347530    0.4286452887285493
    0.3863555305731361    0.4348216306846281    0.4041852054261835
    0.4458125822920705    0.3573443909315545    0.4179570528982003
    0.6091076635081929    0.5432666017905987    0.4031281590678327
    0.5409573471702918    0.3891622750158811    0.4000012280914908
    0.4440731644248206    0.5094551661473699    0.3851962874878493
    0.5920879824156540    0.6351892380572269    0.3851062641530105
    0.5157755713219965    0.5737293111393786    0.3834921709212935
    0.5400604278987058    0.4805163422935363    0.3688187140003206
    0.4655600469286851    0.4228383073045366    0.3484806289076726
