Au37 rank 15
1.0
   29.2542116531980732    0.0000000000000000    0.0000000000000000
    0.0000000000000000   29.6703977391852156    0.0000000000000000
    0.0000000000000000    0.0000000000000000   28.1607934305186340
  Au
  37
Direct
    0.3847213868025527    0.5489331003030800    0.6235325844868429
    0.4564865789229476    0.4884058144434383    0.6213954865389196
    0.4743025726443912    0.5803185257423132    0.6167762202783885
    0.5422819755048389    0.5207390999071392    0.5919653386106766
    0.3728095373800324    0.4672059321295152    0.5787743291924209
    0.5280916260348171    0.4308242662169973    0.6094388107168349
    0.4453091972038106    0.4059627054726421    0.5737022672351879
    0.5958924824080652    0.4540013812066563    0.5476509924893750
    0.3435393027401553    0.5480646179852124    0.5354547470621145
    0.5419459365880718    0.6066430913454304    0.5513569180685663
    0.4019337981304166    0.6196443066442514    0.5614085968385368
    0.5252551984088342    0.3953280865282079    0.5194864869888910
    0.3629133129293822    0.3871745349459152    0.5301891224916816
    0.6002470373096325    0.5444833132561357    0.5168400780221973
    0.4421862775564602    0.5381587853129384    0.5253865820943032
    0.4808887374973576    0.6686353904201162    0.5853541795229863
    0.3326532025267860    0.4653387588894012    0.4877538401598144
    0.5847227504785736    0.4307003933363743    0.4511151448543571
    0.5157600995460901    0.4968350692996563    0.4863050619841896
    0.6601591503299074    0.4799809027906299    0.4813264571910297
    0.4443098800568618    0.3583397499257444    0.4886995411474009
    0.3174438197815033    0.5451088998285074    0.4427345420911495
    0.5436169755137195    0.5914891227506468    0.4541593754959916
    0.4703777384861458    0.6385765507055006    0.4932383738030749
    0.4319822772306431    0.4586513695373533    0.4786557544971707
    0.3868718602289709    0.6039745953649276    0.4658249836894063
    0.5979598692726409    0.5197885280908019    0.4204931029734224
    0.3717294119263462    0.3960359055384787    0.4324160509180610
    0.4614491952510519    0.6008415046156306    0.4051214755665569
    0.5117223880135210    0.3827748217601453    0.4221359634873667
    0.3703830336603598    0.4825086151449044    0.3957035407714353
    0.5268340467834174    0.4669455274071792    0.3821750070181080
    0.5332672423556102    0.5580162026338088    0.3633239019609642
    0.3767640199647729    0.5734145151976497    0.3731291418838345
    0.4359362077431982    0.3359445432186550    0.3935130007488910
    0.4501243008718143    0.5171189529543992    0.3568218467541120
    0.4417267274661811    0.4262992705458389    0.3708516482150356
