Au
 1.0000000000000000
    28.1766797410000009    0.0000000000000000    0.0000000000000000
     0.0000000000000000   28.3108329330000004    0.0000000000000000
     0.0000000000000000    0.0000000000000000   29.3008729069999987
 Au 
  37
Cartesian
 14.9899000000000004 14.6477199999999996 19.2221800000000016
 12.4848999999999997 13.6736000000000004 18.9650700000000008
  9.9276900000000001 12.7424599999999995 18.5184199999999990
 14.7261500000000005 12.1920000000000002 18.0121199999999995
 13.0835299999999997 16.2678200000000004 18.0847000000000016
 16.9450299999999991 13.8661999999999992 17.4752299999999998
 16.0463699999999996 16.5424000000000007 17.5781999999999989
 12.1505600000000005 11.5244300000000006 17.2836800000000004
 10.7762799999999999 15.0374499999999998 17.1607300000000009
 16.8031700000000015 11.3351199999999999 16.4164999999999992
 14.1597500000000007 18.3040599999999998 16.5787499999999994
 18.2020599999999995 15.8279700000000005 15.9913299999999996
 14.2644500000000001 10.7458600000000004 15.6622800000000009
 11.7933699999999995 17.1052399999999984 15.6859300000000008
 10.0805699999999998 12.6939600000000006 15.7975100000000008
 14.2239199999999997 15.5081500000000005 15.5751600000000003
 17.8990699999999983 13.3294200000000007 14.8976799999999994
 16.3356999999999992 17.6124800000000015 15.0161800000000003
 12.8361400000000003 13.2541300000000000 14.9194600000000008
 11.6421899999999994 10.5703200000000006 14.7572700000000001
 10.5106900000000003 15.0209200000000003 14.3409999999999993
 16.2077400000000011 11.3040299999999991 13.7324300000000008
 15.1025899999999993 13.9951500000000006 13.5982199999999995
 13.7837800000000001 18.1024899999999995 13.8540100000000006
 17.6117199999999983 15.6857199999999999 13.3254099999999998
 13.7273599999999991 10.5037699999999994 12.8953199999999999
 10.5482800000000001 12.5427700000000009 13.0929199999999994
 11.3546600000000009 17.2065100000000015 12.9717199999999995
 17.5726100000000010 13.1767000000000003 12.1645299999999992
 16.0097600000000000 17.6882100000000015 12.3023500000000006
 11.0827799999999996  9.9334900000000008 12.1672999999999991
 11.4853900000000007 14.7520399999999992 11.7306799999999996
 13.5911000000000008 16.6316200000000016 11.4808500000000002
 15.9899799999999992 15.1870300000000000 11.1103299999999994
 15.1111400000000007 12.2985900000000008 11.2986900000000006
 13.6396899999999999 14.2779399999999992 10.0876800000000006
 12.3235399999999995 12.1199800000000000 11.0357400000000005
