Au37 rank 12
1.0
   31.4963268395130243    0.0000000000000000    0.0000000000000000
    0.0000000000000000   29.0053943637910550    0.0000000000000000
    0.0000000000000000    0.0000000000000000   26.7607495485304980
  Au
  37
Direct
    0.5204845236021498    0.4990070027139765    0.6276332168249215
    0.5542064003076315    0.4124672414791810    0.6141455535733700
    0.4357408124581125    0.5136577034775974    0.6122425540094260
    0.4706358343088320    0.4269309789285747    0.5940737962108655
    0.4922241976610762    0.5862131403429668    0.6032049493158452
    0.5775539447885186    0.5705789915526900    0.6189956828753203
    0.3512916246623965    0.5304206476129655    0.5869845446347296
    0.4114826826575480    0.5924160837274254    0.5594224264217947
    0.5992346282523097    0.4865852512587773    0.5799214795663183
    0.3888370876188373    0.4439984191311425    0.5682259121708669
    0.4328032232385924    0.3754744088803736    0.5200225939850313
    0.4723217644564845    0.6542580018692050    0.5352097343353523
    0.5183142817378547    0.3648111478250776    0.5365445510941820
    0.5994834223261251    0.4050777882066257    0.5265400937108612
    0.5556879030690594    0.6305676983888031    0.5453088680276985
    0.3745884313225806    0.5388287560232832    0.4861944538215378
    0.6227902340947734    0.5663198552708061    0.5311227918869290
    0.3170918529046167    0.4704762234219205    0.5191444743109958
    0.4339081667911199    0.6044849641137132    0.4595261527409814
    0.6460102302583927    0.4801149520408545    0.4946901209842969
    0.3445633576269588    0.3836190790251693    0.5005883677723600
    0.4857682368220109    0.3532205084402644    0.4400530406962436
    0.5697537522275733    0.3455057741127888    0.4552143549677982
    0.5180226738460415    0.6376894073959820    0.4506775983392551
    0.6277719510390389    0.4081194219174719    0.4264086505802234
    0.6048134730843924    0.6323336534915829    0.4610186000378165
    0.6840047657549072    0.4758362069111762    0.4018832827971984
    0.6477752380473627    0.5561714504391714    0.4317485075753337
    0.4003708499987820    0.3607701644461700    0.4256674658123989
    0.5419069344720990    0.4146508008181997    0.3922307377736191
    0.4811580689015859    0.5894478110976774    0.3746332689634393
    0.5975747818189824    0.4875763157207864    0.3811804713217819
    0.4554242720326153    0.4316115536572535    0.3940569044337114
    0.4295024602907538    0.5214721275075832    0.4070346479726008
    0.5653872976088247    0.5741821401297635    0.3937702154496908
    0.5113062825000851    0.5010459068669830    0.3720120994555690
    0.3804823836159665    0.4529625446324796    0.4443933802720649
