Au37 rank 8
1.0
   27.7649493497465514    0.0000000000000000    0.0000000000000000
    0.0000000000000000   28.2715006205607366    0.0000000000000000
    0.0000000000000000    0.0000000000000000   28.9067630913164066
  Au
  37
Direct
    0.6176330485515227    0.4596231282800228    0.6522657815718326
    0.5215535321549332    0.4767423022208818    0.6323243821770894
    0.4997675455355114    0.5711003560406681    0.6053535426244259
    0.5949285362615709    0.5343341414166253    0.5946549407235914
    0.4309879723140936    0.4977389604315053    0.6002733147250807
    0.5657357720753401    0.3942889240086345    0.5996873269600113
    0.4704928761854890    0.4101446496116861    0.5787832086949696
    0.4029607581885447    0.5889974988726838    0.5830297822420595
    0.6379827307947502    0.4518275093749911    0.5592269109250690
    0.3765915596182137    0.4301930332378223    0.5569658721047726
    0.4745361568400339    0.6459390687412994    0.5484085073264737
    0.5617304427010449    0.5999654106870419    0.5327844168161098
    0.5173141439147646    0.5035316663256850    0.5351984994207200
    0.6253673228726025    0.3590755138346194    0.5323197680790612
    0.5253196022815482    0.3543669711495552    0.5201843462538779
    0.3727872876949213    0.5202871587763889    0.5219341722096060
    0.6185795401957270    0.5246194695487295    0.4996439245314270
    0.4306615389536709    0.3749340016393261    0.4976866138106676
    0.4049313106208007    0.6057494563179282    0.4881933887471447
    0.6201065953225714    0.4325033325608271    0.4668160269464484
    0.5086586101668009    0.4405782279659120    0.4665892245150107
    0.5935120977617323    0.5969169330833907    0.4422008331389182
    0.5008111117676105    0.6263686791735951    0.4597991135379509
    0.3648006285395066    0.4415914240969694    0.4638876594778059
    0.4637466704008721    0.5250150890037111    0.4590545703993684
    0.5887244164613725    0.3407821732235347    0.4467862423802738
    0.4932279474429473    0.3512980276818881    0.4245399549641720
    0.3688693788964322    0.5329789761154239    0.4259762066453194
    0.4297083733334103    0.6041686085133575    0.3963216040547825
    0.5944544141730863    0.5047008880272039    0.4082588218100871
    0.3987069260117316    0.3698111969606743    0.4069296919609068
    0.5637478269328838    0.4128143713404473    0.3871110337744068
    0.3706482921337687    0.4541461831450271    0.3692796928347477
    0.4667757684704733    0.4196502803785058    0.3579454935623012
    0.4414468515077472    0.5172136332292199    0.3543655982958037
    0.5336792809437343    0.4862135321846335    0.3335674778147171
    0.5224856162842596    0.5680314108502729    0.3826854445029544
