Au37 rank 9
1.0
   29.7031532881041542    0.0000000000000000    0.0000000000000000
    0.0000000000000000   28.2670061589532580    0.0000000000000000
    0.0000000000000000    0.0000000000000000   28.5282879214677934
  Au
  37
Direct
    0.4156529564747305    0.4739629983267620    0.6300583870785124
    0.4939962999977636    0.4220813603484809    0.6446255687220339
    0.4972910010018579    0.5198647811902846    0.6501939460199947
    0.5270612405789116    0.3840723789615021    0.5637289265455924
    0.5603423369172997    0.4724701987085380    0.5967471581443037
    0.3730499323929909    0.5429239631240315    0.5800880496485682
    0.5451352573949496    0.5715330140617968    0.5836226325617082
    0.4482707751973584    0.5909778029691067    0.6098004368443183
    0.3595761073740210    0.4495115970720529    0.5552857674331477
    0.4935293015242423    0.6415812347133374    0.5431807920370624
    0.4340488213887096    0.3905343823111282    0.5780588916427359
    0.4700250612483057    0.5113700720642396    0.5540799225618687
    0.6056427271365252    0.5227856390978951    0.5286544554290070
    0.6080720372523910    0.4221786084657924    0.5319385693705304
    0.4103666272484291    0.6044332132200351    0.5174797533530344
    0.5261225372581070    0.4603131637714228    0.4925401984172493
    0.6640782422296228    0.4692158724783363    0.4702820870536958
    0.5574078604387691    0.5970184516502698    0.4888886140461307
    0.3786390634581004    0.3640710667981337    0.5061078518587323
    0.3554785619204783    0.5289020468664990    0.4878002873195842
    0.4701491223562808    0.3569962695138683    0.4913999321216529
    0.4313041542566007    0.4559605128484130    0.4873262629189812
    0.5618456966459686    0.3539402413246537    0.4771745925512094
    0.6533948369637879    0.3694946047030209    0.4652243344611221
    0.4769643480829254    0.5372226833881469    0.4610795583865983
    0.5980336180435932    0.5279430299428106    0.4329359915268851
    0.3366665605353489    0.4373268312938188    0.4603878558394741
    0.4744762271548079    0.6362796596689527    0.4492362207712838
    0.3973312073379480    0.5874092096904479    0.4231083664957365
    0.5921767464777246    0.4293752181253860    0.4217014271333733
    0.4113042110094446    0.3900374464854540    0.4173548302199295
    0.5051605098141015    0.3959663315119786    0.4097456672951706
    0.5342245727279807    0.5855093279142921    0.3941646040010121
    0.3840609332505048    0.4926288735189019    0.3998028965014108
    0.5311302744070797    0.4866703796442483    0.3781094311746352
    0.4560688898952381    0.5437356158433269    0.3622944370210776
    0.4506052828259338    0.4466100422808771    0.3508098355763908
