Au37 rank 4
1.0
   28.1131337687950946    0.0000000000000000    0.0000000000000000
    0.0000000000000000   27.4195220216046174    0.0000000000000000
    0.0000000000000000    0.0000000000000000   28.1307983281849339
  Au
  37
Direct
    0.5171894022779330    0.5401401860802054    0.6619663423605177
    0.5363242593879632    0.6285298953560114    0.6198933966276793
    0.5632958595980240    0.4563220735449643    0.6378088751734957
    0.4543011391363553    0.4760227892205326    0.6195845022726516
    0.5006339048115070    0.3899131460586555    0.6016439031007084
    0.6066378573911058    0.5556330153217273    0.6180317658819644
    0.4512845555592801    0.5794765631384133    0.5990700296358910
    0.6475048187515637    0.4691807605644002    0.5909637942569168
    0.5294009559503741    0.5172765022013820    0.5624834081261474
    0.3927678782560310    0.5135652473874643    0.5530329504114717
    0.5885452053563469    0.3978436570521755    0.5572358062993954
    0.4308973639471857    0.4208626313471295    0.5388373357205609
    0.5943496436156017    0.6246253591625656    0.5423783947083830
    0.4965450587522370    0.6423167194024892    0.5323201956711499
    0.5193191812261994    0.4538381588674726    0.4869165077205648
    0.5077556183799892    0.3551717242594201    0.5104761273699366
    0.6640336200901675    0.5504047289887489    0.5359611267151719
    0.4034417980922947    0.6104113545754587    0.5203478363493648
    0.6509157703382275    0.4495017571377047    0.4971472227814271
    0.3325761375576135    0.5536822350012265    0.4817811735677803
    0.5803008358851803    0.5321707950724801    0.4807611175238407
    0.5898984873680713    0.3795048017511302    0.4606017622873532
    0.6467610793811047    0.6186049969159306    0.4609994757816265
    0.4538000161991969    0.6486303626602932    0.4418929511491224
    0.3551663506926946    0.6454233176591383    0.4408305965881482
    0.3910001496526017    0.4741576428411777    0.4636444685015297
    0.5504970572092016    0.6346770064705933    0.4502853018025612
    0.4461810313450678    0.3947330301508287    0.4437237435356427
    0.6767831820025955    0.5260156031944279    0.4393296727807277
    0.4796970818570590    0.5467555896628206    0.4828637447624501
    0.4053271671111087    0.5631392179859938    0.4144621961145293
    0.6130094012295418    0.4603191337032209    0.4044859577047710
    0.4996502925827814    0.5775691914650748    0.3853264815347435
    0.5990509758837589    0.5683948842348956    0.3882875357591864
    0.5275251205942635    0.4106450710417573    0.3917777756481998
    0.4583534935371075    0.4828312119847005    0.3918212382747925
    0.5439355557054414    0.4983576036401540    0.3460634209922463
