Au37 rank 18
1.0
   27.9683525683489691    0.0000000000000000    0.0000000000000000
    0.0000000000000000   27.6463609495035776    0.0000000000000000
    0.0000000000000000    0.0000000000000000   29.7566425490010964
  Au
  37
Direct
    0.5552265188621121    0.4014177545931201    0.6027598658895357
    0.4828811859129182    0.4021618795921927    0.6640644845791672
    0.5161550920351393    0.4898441813272050    0.6313757238370213
    0.6084927330108613    0.4881960106389722    0.5901800289845424
    0.4195666888531953    0.4617345157354264    0.6206145342285644
    0.4519257960248322    0.5581070936048457    0.6006407301140739
    0.5495232076810804    0.5705106270042186    0.5886416404463506
    0.3647729499067922    0.5244049077963197    0.5733400564078465
    0.4615128331934668    0.3866397134303188    0.5724436545533224
    0.6256974174146339    0.4051036252227669    0.5395907429938391
    0.4865730802403856    0.6388161669133213    0.5575867627734552
    0.6390297050718573    0.5723653007950954    0.5501357339372055
    0.5297193671848067    0.4764590284143052    0.5332233896840940
    0.3841722201297232    0.4343230879855182    0.5371808634234697
    0.5375929404876625    0.3694268210252371    0.5142899282664961
    0.4052069992965243    0.5975894270280117    0.5246641741049033
    0.6430721095456990    0.4908846151771619    0.4979453777892977
    0.5667103056064120    0.6216715150512366    0.5076887620475876
    0.3586172515108117    0.5194911233443511    0.4819489032559435
    0.4442477567603958    0.3747698048910776    0.4813614963061051
    0.4540482520639457    0.4791862893117583    0.4781848008452806
    0.5995752882167648    0.4152120246299505    0.4513625004479438
    0.4783356864262009    0.6297195483683273    0.4660170182927380
    0.6427178952534096    0.5829328019074393    0.4584918781100488
    0.5322375663375120    0.5313472795093519    0.4569036101274940
    0.3685343464022694    0.4272160086570024    0.4460735386641865
    0.5217317644907821    0.3616610709643288    0.4244375751174955
    0.3916930349058567    0.5989460110544934    0.4334162698180723
    0.6234167774631695    0.4993068270506262    0.4074114628758045
    0.5605652948823308    0.6169555175729462    0.4133262493673346
    0.4489775580671300    0.4179046734700405    0.3930339557647758
    0.3994734130700548    0.5076635756952087    0.3966535442165753
    0.5455601535314913    0.4448907834183927    0.3791648543188398
    0.4731390805129931    0.5784973542027431    0.3858460910854978
    0.6431864827558709    0.5879405511128205    0.3666506173945496
    0.5569940196441914    0.5424524538436709    0.3493229968697147
    0.4728761055344247    0.4932675155626242    0.3373624709757839
