Au37 rank 3
1.0
   28.2064597065150622    0.0000000000000000    0.0000000000000000
    0.0000000000000000   28.1608756656616777    0.0000000000000000
    0.0000000000000000    0.0000000000000000   29.4575079476341912
  Au
  37
Direct
    0.5869919653862571    0.3985116829772212    0.6620997860142224
    0.5054720749611473    0.4460723481368246    0.6342673484111575
    0.4465920064824317    0.5924073923957137    0.5997455557242082
    0.5254145002682612    0.5395296565073719    0.6060065623061145
    0.5964394844815761    0.4735680486957745    0.6025361003949423
    0.4348826502138421    0.4957260726875399    0.5903922561814786
    0.5472019427340016    0.3790644472007128    0.5773151856942851
    0.6452623840573321    0.3908103540206548    0.5846044727851714
    0.4350280750202964    0.6441332538254585    0.5221940281012395
    0.4529694556050416    0.4043984972967335    0.5621414052363323
    0.3863232523360557    0.5576114300928210    0.5329524975625292
    0.5992228397443662    0.5489331281798711    0.5437459187662096
    0.5267287436223298    0.6175111035872511    0.5480173125907873
    0.6393690817366758    0.4630283430212527    0.5172532347777314
    0.6051001958529534    0.3726706194811754    0.5009986943371854
    0.4527600780617888    0.5073572380568457    0.4749146870683068
    0.5068547355412045    0.3585807884003503    0.4955525433656590
    0.4111926251931644    0.3713366728686259    0.4848559828224625
    0.3801759194820405    0.4567123443584147    0.5206102736199648
    0.5241603269527936    0.4728370375146819    0.5294027925686071
    0.5382556158195234    0.4962715780950959    0.4406645152218054
    0.3513156514057247    0.5201821182625663    0.4531347134519282
    0.4096459645873699    0.5986930247133712    0.4450080393212840
    0.6314272616332195    0.5336736650397885    0.4531089844720638
    0.5029017752411667    0.6373553097368919    0.4564665089517927
    0.5946078916986605    0.6191663222123323    0.4813455109020122
    0.6201424305899446    0.4358012104059611    0.4285985758515024
    0.5638664782596925    0.3551634331871041    0.4195768669967913
    0.3920969025939971    0.4383429060748243    0.4208811997490810
    0.4698577067795019    0.3778777200191675    0.4096541805605376
    0.4151886443178122    0.5265501782859511    0.3804232441935447
    0.6039972931342739    0.5061681886806437    0.3647997831645898
    0.4713776434844057    0.6052202482000372    0.3734246464003690
    0.5643510486376668    0.5882584075673394    0.3979129635658353
    0.5426794419588652    0.4289177610386543    0.3633243632116782
    0.4482289028484671    0.4432217035167338    0.3440198948972565
    0.5085244659625077    0.5208816180398617    0.3460090631299269
