Au37 rank 7
1.0
   28.1766797411754126    0.0000000000000000    0.0000000000000000
    0.0000000000000000   28.3108329333278306    0.0000000000000000
    0.0000000000000000    0.0000000000000000   29.3008729072255889
  Au
  37
Direct
    0.5319772213277306    0.5173864900830373    0.6559940775958907
    0.4430907922963533    0.4829317206831346    0.6470130333849358
    0.3522851314214225    0.4500746041499231    0.6319857765352948
    0.5226941090255911    0.4307133169968244    0.6146028793410208
    0.4643290151481754    0.5746967408032192    0.6172779571773406
    0.6015391939720384    0.4898032828113571    0.5964935700134536
    0.5693452930794722    0.5842626098497513    0.5997977234340922
    0.4313218388598307    0.4070106392241241    0.5897836181089171
    0.3822314179476075    0.5313490371231855    0.5858425176917019
    0.5965015972529017    0.4004742322601429    0.5602823526359108
    0.5024678962356719    0.6465606575010379    0.5657538743722995
    0.6459043211496814    0.5591090227849479    0.5457616489405267
    0.5064275314600718    0.3795337236907283    0.5344096811320231
    0.4183508525030776    0.6043195326009543    0.5354019247494622
    0.3578696077476137    0.4484509679434681    0.5391987914693571
    0.5045204989841928    0.5479646854468870    0.5313598745278266
    0.6353003640639846    0.4708684875172617    0.5084207736587800
    0.5797073438155780    0.6221291621852779    0.5124679909627542
    0.4555486629821227    0.4681676806738592    0.5091015871467930
    0.4133326573521514    0.3734387229556165    0.5035991195735738
    0.3729943411765605    0.5306070850765224    0.4895513438003553
    0.5754537242405022    0.3990641397808110    0.4685801193988618
    0.5363243007271850    0.4940277408843632    0.4644766067508207
    0.4890767304993928    0.6393527475966283    0.4728454841632680
    0.6250673800621768    0.5541181351140256    0.4547669562645992
    0.4873832341419776    0.3708432463773923    0.4399610318869551
    0.3742464826428853    0.4430427673411524    0.4469052306556719
    0.4029170796221868    0.6077523960463790    0.4426371680539079
    0.6237379811235292    0.4654524443394093    0.4151864799462347
    0.5680318508211158    0.6247151920996253    0.4198922219465440
    0.3933939608765739    0.3508134118908745    0.4153056800688597
    0.4076520576266416    0.5210414944116744    0.4004474316573629
    0.4822593390133613    0.5875098552931205    0.3917226226682036
    0.5673413412379752    0.5363158264785016    0.3793957200670008
    0.5363689630888364    0.4344824210703961    0.3855722777002617
    0.4839798198056723    0.5043010371401812    0.3442316896064456
    0.4373893555177764    0.4281466266856794    0.3768515920219769
