Au37 rank 19
1.0
   28.7705610520344379    0.0000000000000000    0.0000000000000000
    0.0000000000000000   28.3044534244661108    0.0000000000000000
    0.0000000000000000    0.0000000000000000   28.5124818859149229
  Au
  37
Direct
    0.5335780503703660    0.4572584625465078    0.6496181590097229
    0.5310347577078061    0.5527599305325045    0.6403407942801916
    0.4487636810409541    0.6006499641622277    0.6305003426361138
    0.4475284496941308    0.5034512545992612    0.6375027347522826
    0.6030984510389650    0.4966858357120327    0.5950560126084536
    0.6107540378018225    0.5930699112022513    0.6079248249975132
    0.5242508567347275    0.6346826635291770    0.5829971681484777
    0.4660811999424537    0.4161928988007524    0.5968842144098758
    0.3870572749968226    0.5536798741765900    0.5741190363434506
    0.5633118764103369    0.4130165768632427    0.5683656157616296
    0.3808493692996444    0.4577758980543503    0.5848736544909369
    0.4377131681538057    0.6296007487666583    0.5388346198883903
    0.5424024930065475    0.5467027272770836    0.5306320483286141
    0.4629548859800539    0.5470918779803723    0.4792747919272950
    0.6198109524470387    0.4613579761230198    0.5058518293955330
    0.6421713441457222    0.5556931852645539    0.5245924983241170
    0.4967335600690785    0.3534821290308492    0.5313779014926054
    0.6018637576185397    0.6464775495068632    0.5270557523104961
    0.5029244353558550    0.4638596970464590    0.5041858673624323
    0.5167848678389555    0.6452505296973119    0.4848748899056627
    0.4165849912554818    0.4083594510990942    0.5107971586241226
    0.3589700249581124    0.5943750779513503    0.4912146264797272
    0.3741882599772208    0.4959022106665165    0.4961009874381367
    0.5629430293930163    0.3891417218200849    0.4713111832006880
    0.6524598073449575    0.5232414635577195    0.4358049938107938
    0.4326143669233362    0.6375478189052747    0.4416946346160271
    0.4715924169358190    0.3727159362493926    0.4395592782233678
    0.3451405646787933    0.6300170233529058    0.4018156177421380
    0.4267326975574871    0.4561458679953078    0.4243800548039675
    0.3874100957240051    0.5427840211066303    0.4114021455814920
    0.6131078918958417    0.4407429915607675    0.4093221790105321
    0.5936046102679079    0.5987950242411517    0.4444011438651805
    0.5191208204252894    0.4424390764940256    0.3942987040519076
    0.5129511253137251    0.6064215425117392    0.3948478606223932
    0.5679755855433650    0.5259318288760979    0.3854897283291135
    0.4727518862634961    0.5221997642841292    0.3682736024615611
    0.4265363191460905    0.6073835000744624    0.3490482982059135
