Au37 rank 13
1.0
   28.3910846066993727    0.0000000000000000    0.0000000000000000
    0.0000000000000000   29.6826218829592747    0.0000000000000000
    0.0000000000000000    0.0000000000000000   29.9640127996426315
  Au
  37
Direct
    0.4698121663672588    0.4785245064917673    0.6677944036962369
    0.5508740780729353    0.4902275359752719    0.6199462322178422
    0.5832699596396798    0.4182446253568746    0.5684786539879454
    0.4922556005791013    0.4151554744126189    0.6023154276184118
    0.4102950464996413    0.4674761058196095    0.5964036723139995
    0.4718082331265511    0.5406773115698873    0.5980377971406657
    0.6287027629750944    0.5012848292167135    0.5684622623549302
    0.5579046764601345    0.5632965774178420    0.5584842741258570
    0.4222700828314684    0.3929048295030640    0.5409147691265853
    0.4720640382470286    0.6052812234112795    0.5338133742954441
    0.4029217507633495    0.5363926844892949    0.5316843693757515
    0.5134251602893396    0.3601877159106638    0.5319666505147053
    0.3543998633265896    0.4570406854233103    0.5236183685963191
    0.5417932930619059    0.4402584696471970    0.4834611682064701
    0.6049589004569479    0.3620643630342240    0.4981835576154898
    0.6432322210107571    0.4482698530309261    0.4955820261628940
    0.6162241307572542    0.5403278014642428    0.4862362645464357
    0.4971543212307147    0.5193124570220745    0.4977864314363544
    0.5483428748351988    0.6045593808184556    0.4737871227514234
    0.4437449640763728    0.3359751514078624    0.4721363165310565
    0.4736536741881239    0.6644711521523607    0.4637073950621410
    0.4241851184893323    0.5841739175447523    0.4539880497279330
    0.3847386618277492    0.4067269373696599    0.4535068295313857
    0.3763490261003191    0.5035618234863652    0.4473808071629168
    0.5320449242883427    0.3498814691024102    0.4395385037741688
    0.6106882012409834    0.4058510059756393    0.4160236549540851
    0.4698242540230420    0.4643525354155212    0.4319363073675149
    0.6479457725676825    0.4912400710723968    0.4140617699783520
    0.5814173725399493    0.5568753505946060    0.4015845263125628
    0.4962935015800766    0.6062259580237569    0.3940630009565184
    0.4518676102097948    0.3778037296415274    0.3893332628353232
    0.4314491848004038    0.5352240136270335    0.3761813252054843
    0.3915623182260664    0.4496818796080290    0.3714982233261358
    0.5762078049408633    0.4712426867354256    0.3565009532143310
    0.5420476467134780    0.3835576994294713    0.3548446926431336
    0.4821254015642783    0.4550738827315056    0.3372879086744910
    0.5174485359369682    0.5402231462969962    0.3350766479846183
