Au37 rank 6
1.0
   28.0015839899200110    0.0000000000000000    0.0000000000000000
    0.0000000000000000   28.3770681892375443    0.0000000000000000
    0.0000000000000000    0.0000000000000000   29.3426018520838205
  Au
  37
Direct
    0.4926512048519083    0.4639143850384950    0.6556270663123052
    0.5190907807974394    0.5551324133701147    0.6482043459758919
    0.4280307574227745    0.5262425655518369    0.6193850585112214
    0.5435463366727339    0.6482619188816955    0.6341777013509221
    0.5783947673686680    0.4820751477633518    0.6134657232311069
    0.5261795709132447    0.3988461869713101    0.5946795342793589
    0.4279979520579916    0.4210453088327323    0.6001294610106466
    0.4641266105496704    0.6115324609567601    0.5883586233039956
    0.5936006552014026    0.5751085755261295    0.5902289436553012
    0.3588570910178066    0.4822578969574396    0.5680631794479694
    0.6150905584552033    0.4131061332433474    0.5575635264285090
    0.4600779057566080    0.3490332316309813    0.5440704364823428
    0.5443108888141823    0.6447141168346779    0.5413544908962354
    0.3931731852923833    0.5697034322796313    0.5385371649083504
    0.4584410905554011    0.4899093409283350    0.5334295130229009
    0.6271848601001359    0.5045420403829476    0.5330988405087409
    0.3899646024814809    0.4093275790916556    0.5130021232176429
    0.5471619032122675    0.3689250663403918    0.5059428327561287
    0.5330203632354271    0.5467847760447175    0.5100445106321437
    0.6244802354580946    0.5976563260359355    0.5039980542557300
    0.4621371711118881    0.6226080830441902    0.4925587483005714
    0.5133814092362975    0.4654783484173791    0.4641109358964526
    0.3633123587738584    0.4977641614530836    0.4754220188669446
    0.6128970106903248    0.4357147321804839    0.4664670802913876
    0.4617026616012038    0.3719045673044890    0.4535799293457172
    0.5497465588603344    0.6302852099660802    0.4488869110081996
    0.3865570692159111    0.5864242222848349    0.4464589758667254
    0.6328991770780051    0.5258526180099817    0.4390175189547411
    0.3846602484363681    0.4221802635892541    0.4208361954029544
    0.5502084683088132    0.3824719693024544    0.4129779760663180
    0.6437809213340541    0.6208906622321999    0.4157547926405827
    0.4736263412826181    0.5907981832177989    0.4029821988987949
    0.4137168070070638    0.5109490327094330    0.3939297149039183
    0.5725038370160807    0.4723165061466055    0.3848297588507208
    0.4729214643934911    0.4320070227824376    0.3791411117161269
    0.5695707454536539    0.5708104366472366    0.3773348723690033
    0.4967003914729912    0.5180893676619683    0.3450741338454459
