Au37 rank 1
1.0
   29.9982966065402437    0.0000000000000000    0.0000000000000000
    0.0000000000000000   28.5695912645132779    0.0000000000000000
    0.0000000000000000    0.0000000000000000   28.3201403984482454
  Au
  37
Direct
    0.5210376714132411    0.5042471841922973    0.6441280539427047
    0.5584466312774999    0.4173815039897252    0.6432761540485312
    0.5827479589505512    0.5775928775567906    0.6380251179598410
    0.4383522140732197    0.5138915289209035    0.6036808041724456
    0.6169524472491774    0.4900267348332094    0.6228958639422887
    0.4818640370036689    0.4280740289829045    0.5943432254422836
    0.4956828721620898    0.5904973121702033    0.6038448135391042
    0.6337921043005974    0.4003639821814213    0.5912031736284716
    0.4065517679508258    0.4444078994800224    0.5428332596204088
    0.4211555553488717    0.5879677349138757    0.5428992230994468
    0.6430693640896421    0.5652902756774277    0.5632207953441923
    0.5498552980988070    0.3700861973529813    0.5583611125621101
    0.5711521938350853    0.6323180901453119    0.5586299676041818
    0.5535187998959490    0.5295382157087384    0.5514910710115448
    0.6598541831475038    0.4738232548792871    0.5362292349486654
    0.3548542776919402    0.5234502560396207    0.5592689746686522
    0.3320568224228493    0.4602646310832706    0.4869296482661823
    0.4867163444944068    0.6501654880822277    0.5265154842957767
    0.4724366409261682    0.3870938735695373    0.5062509926444828
    0.6378898006634312    0.6337086961912494    0.4934797262351021
    0.6213242603852239    0.3897371571511556    0.4967554181582512
    0.4879228399308250    0.4875342010020707    0.5011042836039346
    0.5760845029145576    0.4828478520544159    0.4744918829445455
    0.3993249385087801    0.5255801456644981    0.4714694547114257
    0.4105020046985910    0.4316943707575512    0.4444556904484833
    0.6587696591598894    0.5427876119859044    0.4689911017803086
    0.5497426628069551    0.6318178435917043    0.4602791208475580
    0.5454057777704916    0.3496740372263833    0.4630019118651937
    0.6666211838786286    0.4513781066526029    0.4404331445566243
    0.4684784904967293    0.5862967439192541    0.4557819514560909
    0.4944870822687568    0.4126415268766330    0.4134005868903148
    0.6186326128222635    0.6021563117206504    0.4038479277661234
    0.5884883912612764    0.4130486281992715    0.4037342978477552
    0.4622022975654914    0.5046111879103024    0.4030609536134349
    0.6143056757450792    0.5084273167357685    0.3844844563072290
    0.5349047870950426    0.5638238526522905    0.3917699209003095
    0.5345084705861542    0.4747370712060194    0.3528867610003051
