Au37 rank 5
1.0
   27.2320732287774483    0.0000000000000000    0.0000000000000000
    0.0000000000000000   27.4536077842888950    0.0000000000000000
    0.0000000000000000    0.0000000000000000   27.3154460741484577
  Au
  37
Direct
    0.4835755160080482    0.5059001606816479    0.6405186490009932
    0.3867723954014267    0.5288446541482699    0.6242101763996040
    0.5812847542286086    0.4843030245540400    0.6530121353336159
    0.4573765914932064    0.6030587826058889    0.6116190744687998
    0.5561038142218219    0.5804793134746030    0.6261225120015863
    0.4203954654377406    0.4402240452853188    0.5912426392753247
    0.5231246263356935    0.4167763424851140    0.6063953683538633
    0.6433884535674691    0.5355161010621421    0.5916617040850077
    0.4546667868105281    0.5362006401383075    0.5323588751821995
    0.3567906532922202    0.4973145521681736    0.5309010009688594
    0.5514419513245793    0.5136950700559808    0.5468298228596874
    0.3724501824396895    0.5974351693321462    0.5514646554779860
    0.6193576721274674    0.4372983746746650    0.5697226185683923
    0.5292255525711019    0.6537386431972059    0.5641185463364591
    0.4624111816211491    0.3583403981149071    0.5521498808330761
    0.6071651161103242    0.6040333267731842    0.5269007390507754
    0.4894914803455733    0.4455486335593822    0.5048271513695716
    0.3938856429573560    0.4085021531116533    0.4934286231825537
    0.5592383063180392    0.3709689375277960    0.5178414047595712
    0.6443320959178197    0.5152482439935843    0.4919781492705330
    0.3905497907941129    0.5733562394606336    0.4543327844629135
    0.5161851368785921    0.5245611462049740    0.4517615855890503
    0.4510277881456481    0.6399517613377714    0.5037119521900573
    0.6376031520794178    0.4184443379655927    0.4736114762244386
    0.6006921013200763    0.4828185058362711    0.4044430487266348
    0.5450750988664488    0.6584352072474848    0.4655598967373969
    0.4763613686079586    0.3546364804260823    0.4530654967150877
    0.6046217122216867    0.5823826684157822    0.4275648092717513
    0.4716587229331797    0.6127938866496595    0.4079011178902739
    0.5658797544808720    0.3864473088748723    0.4138295190464169
    0.5576252849952366    0.6480507181695196    0.3655886941055509
    0.4915574380761112    0.3561440699206150    0.3529043691513457
    0.5365913095632120    0.5507404075093422    0.3551607735499945
    0.3596357130016365    0.4820680649058046    0.4325136999193508
    0.4384349199717805    0.5199331532792340    0.3804740269353083
    0.4240443188405202    0.4189384238259464    0.3929461195473678
    0.5138579336213112    0.4542957946621322    0.3571708616632877
