Au37 rank 11
1.0
   28.4330505634632864    0.0000000000000000    0.0000000000000000
    0.0000000000000000   27.0999517053361849    0.0000000000000000
    0.0000000000000000    0.0000000000000000   26.3451359296698193
  Au
  37
Direct
    0.5647034849564390    0.4938544167724845    0.6506557866726447
    0.4812881929496040    0.4464464335465855    0.6303794306713413
    0.5777395325891826    0.5808928054066974    0.5995995679848386
    0.4850620682025290    0.5489035984080339    0.6380266728348998
    0.6326746059930697    0.4954746133239263    0.5755547982939153
    0.4085082963556608    0.6027163709763604    0.5872157011443588
    0.4988315583251979    0.6368992726978653    0.5884624399126609
    0.5772790089365144    0.4103449617370925    0.5947701766983138
    0.4141655702247762    0.4109104849904269    0.5610388331648148
    0.3218963637598272    0.5588488468565130    0.5788848940065712
    0.4005079742265524    0.5013611896951564    0.6072024176680978
    0.4957880129305560    0.3567935433940962    0.5801134547098424
    0.4689530918104193    0.5380903793204658    0.5316161809944853
    0.6424014006642406    0.5822560438410516    0.5202437576131724
    0.5062751509643579    0.4443649465522198    0.5241434060237179
    0.5597593944654203    0.6362404589488405    0.5086933848107780
    0.6418465089121950    0.4116537213019292    0.5167423931634351
    0.4566291808614710    0.6361927578771643    0.4946461779851706
    0.3786881960067627    0.4024812466047870    0.4652050152716249
    0.3451307310871404    0.4780236274593977    0.5215365630080178
    0.5617364364038223    0.3577618299840746    0.5005356543052284
    0.4454907529031849    0.4107616545486233    0.3909184498860614
    0.3775279239240694    0.5718871948470153    0.4911079464008393
    0.4895101384344319    0.4965495293910125    0.4386346358371619
    0.5621619326960793    0.5232461948776796    0.5008289210154713
    0.6522104758481680    0.4972258290596304    0.4633518464851986
    0.5180333618616765    0.6372453932029526    0.4149479298261215
    0.6025962647236066    0.5876711363932839    0.4240343656165531
    0.4631663679648732    0.3563427111612986    0.4803030400318761
    0.6086783828733201    0.4136108963791680    0.4195423537402361
    0.5325021882073173    0.4477198468779501    0.3525466204221910
    0.3870486934065550    0.4943272814178988    0.4237608196025412
    0.4370683539530098    0.5823786441054540    0.4069926472400324
    0.5292392656890178    0.3594689475748158    0.4028114750720051
    0.4486376951231404    0.5018200305765991    0.3417033932837732
    0.5304465804491183    0.5545473092451850    0.3577152927744711
    0.6125359287339922    0.5014942922535842    0.3691892115682406
