Au37 rank 10
1.0
   29.3483174725424263    0.0000000000000000    0.0000000000000000
    0.0000000000000000   28.0742258277162193    0.0000000000000000
    0.0000000000000000    0.0000000000000000   28.7641986217212704
  Au
  37
Direct
    0.5139260782264147    0.4631384405934916    0.6441779850066403
    0.5844062616077685    0.5282590136881147    0.6529094889560685
    0.4985243945281771    0.5610812653668810    0.6360733199447941
    0.4253385218929205    0.4961990766215413    0.6350822131178132
    0.5355755140607169    0.3727434640978277    0.6119568136548872
    0.3391193148862421    0.5323234672278380    0.6119345677216927
    0.6012207102895638    0.4420327140845782    0.6118757058398924
    0.4147791303266872    0.5888167143744373    0.5987547407461127
    0.4505005479152724    0.4080532980906067    0.5957127470810342
    0.5747075080151522    0.6027685362458636    0.5911784027606357
    0.4906938175040398    0.6434696535804684    0.5843023735579218
    0.4792698288669925    0.5000601791324137    0.5539611258383097
    0.3728082101861840    0.4551036434019848    0.5636514598568033
    0.6385385774889063    0.5308443188504244    0.5746118471504598
    0.5898297822161939    0.3760682062029889    0.5338203291536293
    0.4969474311830793    0.3556348248610657    0.5260751421753103
    0.5052756629081724    0.5152556947160269    0.4655041854351080
    0.3742031549757557    0.5448498942583418    0.5224077077778794
    0.6285454774483991    0.6061434871368367    0.5133480585508456
    0.4474825509683652    0.6055203586186930    0.5083924557636218
    0.4076621380870649    0.3796692505899303    0.5149573166034680
    0.6599623412406738    0.4423546614602462    0.5373229392777532
    0.5381738237924241    0.6316633107173243    0.5031429378621820
    0.4646984408439094    0.3980381608497758    0.4417081367002444
    0.5650876120697563    0.4781445997258748    0.5260530345415086
    0.4039598864064108    0.4666400117760551    0.4719412205494343
    0.6459047116625080    0.5180950379671971    0.4765105266625105
    0.5505922294256664    0.3581653406210506    0.4480589238644630
    0.4078273218640666    0.5572969391595558    0.4351825704352253
    0.4908522771952046    0.6075674057433039    0.4225769260105366
    0.6170812221834177    0.4264350858613741    0.4523819624372830
    0.4507106738253139    0.4799220237637141    0.3889022118254840
    0.5368866366230699    0.4397555907890289    0.3966804697113691
    0.6102865406009588    0.4999790458421781    0.3906805445799084
    0.5815177591681551    0.5817044384775857    0.4339980905358803
    0.4410102271202533    0.5700390745111796    0.3476456057190241
    0.5279700536069113    0.5353823208445139    0.3650390769742038
