Au
 1.0000000000000000
    30.0284249500000016    0.0000000000000000    0.0000000000000000
     0.0000000000000000   29.7032937600000011    0.0000000000000000
     0.0000000000000000    0.0000000000000000   27.2114345600000007
 Au 
  40
Cartesian
 13.3303399999999996 15.4204799999999995 16.9759099999999989
 12.6321499999999993 12.9351500000000001 16.0121700000000011
 14.1047700000000003 18.1425400000000003 17.1806599999999996
 16.0075099999999999 16.2186899999999987 17.0107600000000012
 15.2759400000000003 13.5139300000000002 16.5613999999999990
 17.9100399999999986 14.2908200000000001 16.7676499999999997
 11.5781700000000001 17.4801299999999991 16.3419400000000010
 18.2463300000000004 16.7272299999999987 15.4522999999999993
 10.6678499999999996 14.9916800000000006 15.9109800000000003
  9.9731600000000000 12.4258400000000009 15.3943700000000003
 17.2181800000000003 12.3719500000000000 14.9258299999999995
 16.0371799999999993 18.4026099999999992 15.2474600000000002
 14.6551399999999994 11.4326799999999995 14.7295499999999997
 13.3126999999999995 18.6157199999999996 14.5583600000000004
 19.1205999999999996 14.3246000000000002 14.3102300000000007
 11.5162399999999998 16.6046799999999983 13.7292400000000008
 14.2413600000000002 14.1853599999999993 13.9660799999999998
 15.1614299999999993 16.5885800000000003 13.1392799999999994
 11.9800199999999997 11.2142499999999998 13.9027100000000008
 11.2960799999999999 13.8780000000000001 13.3903499999999998
 20.0483900000000013 16.7800900000000013 13.3844499999999993
 16.5365900000000003 10.5611999999999995 12.9588699999999992
 18.6951999999999998 12.2793600000000005 12.5055800000000001
 17.7016300000000015 18.2209700000000012 13.1175200000000007
 16.6181100000000015 14.3361099999999997 12.6785999999999994
 13.8842400000000001 10.0271399999999993 12.3903400000000001
 15.2260600000000004 19.3506000000000000 12.6837099999999996
 12.7585400000000000 18.1834300000000013 11.8684999999999992
 13.1025700000000001 12.6192700000000002 11.6651500000000006
 12.7410200000000007 15.3694799999999994 11.5743600000000004
 19.2242199999999990 14.8570899999999995 11.5412700000000008
 17.8777299999999997 10.4771500000000000 10.5596599999999992
 15.3168600000000001 11.5308499999999992 10.5409000000000006
 19.1770800000000001 17.5454399999999993 10.8895099999999996
 17.4783000000000008 13.1877800000000001 10.0992899999999999
 16.7313900000000011 18.6462000000000003 10.4118899999999996
 14.8193500000000000 14.2273399999999999 10.1687799999999999
 14.2377800000000008 19.7575399999999988 10.1343399999999999
 14.4967100000000002 16.9467199999999991 10.1042900000000007
 17.0502499999999984 15.8953299999999995 10.0986200000000004
