Au
 1.0000000000000000
    28.9692683446886861    0.0000000000000000    0.0000000000000000
     0.0000000000000000   27.6069096164085508    0.0000000000000000
     0.0000000000000000    0.0000000000000000   28.1199656101496061
 Au 
  30
Direct
  0.5268711719494816  0.5395482969967565  0.6449185450790544
  0.5242247763001879  0.4407558713401006  0.6397358925829171
  0.4470415908291424  0.5910447205715473  0.6401289437312915
  0.4428585474387011  0.4908323649628063  0.6302205750965496
  0.6033192049317919  0.5866442097286508  0.6145312249019756
  0.5969466676910260  0.4864506127947950  0.5972062684334315
  0.5198504392881333  0.6236540559241075  0.5850818939895227
  0.3791608377688244  0.5500904732071847  0.5859355026436077
  0.4607464552681710  0.4075875102753142  0.5756712157763113
  0.6544717781855395  0.5446921005831052  0.5442697497281987
  0.3778115159658985  0.4528868924456949  0.5676275201490488
  0.5567452239998093  0.4062232536520768  0.5551055734990573
  0.4320086368026068  0.6293077838273698  0.5503809775848300
  0.5930100363027746  0.6191314950083509  0.5219647357100281
  0.6190388562114779  0.4626637795094833  0.5034097696387961
  0.3464613006935364  0.6072830183108712  0.5140290797641864
  0.4905346130851518  0.3615678456233008  0.4964164540019521
  0.3749004750854736  0.5153410372122457  0.4905742413663342
  0.5037199975603893  0.6384192870907924  0.4880612859216321
  0.4231543914859627  0.4306883484901695  0.4838179717796647
  0.6257268667399071  0.5496242202700603  0.4531017260988052
  0.5750338054494752  0.3861630369801759  0.4610786129160390
  0.4206535917527458  0.5983251553121696  0.4552948333897919
  0.4953661328528657  0.4242698467529986  0.4197076754993275
  0.5851443047424466  0.4686358202888098  0.4106005423508460
  0.4371492455705363  0.5055722031612332  0.4183478061478433
  0.5086813685664830  0.4966470726643782  0.3561526987765442
  0.5773793478303850  0.6337427578084884  0.4280955640276331
  0.5814287646357604  0.5577306863838470  0.3669155241782823
  0.4956104098143862  0.5863724372032423  0.4012865829155406
