Au
 1.0000000000000000
    28.9040251139999995    0.0000000000000000    0.0000000000000000
     0.0000000000000000   28.4703183300000013    0.0000000000000000
     0.0000000000000000    0.0000000000000000   28.5916304739999987
 Au 
  36
Cartesian
 14.1665600000000005 14.6466499999999993 18.6306200000000004
 14.9207599999999996 11.9974200000000000 18.5408599999999986
 11.5172100000000004 15.1134199999999996 17.9880600000000008
 15.9974900000000009 16.5479100000000017 17.8307700000000011
 12.3888200000000008 12.5107300000000006 17.7053000000000011
 16.7745600000000010 13.9224999999999994 17.8892200000000017
 13.3783399999999997 17.0628999999999991 17.2368200000000016
 13.9565800000000007 10.5967300000000009 16.3769199999999984
 16.6646199999999993 11.3985699999999994 16.5088299999999997
 10.5936100000000000 13.5891900000000003 15.8511799999999994
 11.3108699999999995 10.9473900000000004 15.6841000000000008
 18.6681600000000003 13.1659600000000001 16.0984300000000005
 13.4156999999999993 14.5917899999999996 15.8039900000000006
 17.7219900000000017 15.7751300000000008 15.8868500000000008
 11.1303400000000003 16.4078499999999998 15.5649400000000000
 15.5446200000000001 17.4420399999999987 15.2938799999999997
 13.0163700000000002 18.3180000000000014 14.8258799999999997
 14.8437599999999996 12.7390200000000000 14.5674700000000001
 15.7364999999999995  9.9707799999999995 14.3157700000000006
 13.1139500000000009 10.4815400000000007 13.6548800000000004
  9.9920100000000005 14.8814600000000006 13.5296400000000006
 17.5620300000000000 11.9899799999999992 13.8119599999999991
 18.8818899999999985 14.4550300000000007 13.7116299999999995
 11.0098599999999998 12.3271499999999996 13.3257800000000000
 14.4314300000000006 15.1338899999999992 13.3373000000000008
 17.0599300000000014 16.4283800000000006 13.2665500000000005
 11.9485100000000006 16.7251900000000013 12.9168800000000008
 14.6761199999999992 17.8844400000000014 12.6320399999999999
 11.8260500000000004 14.3109800000000007 11.5432400000000008
 16.9108899999999984 13.8845500000000008 11.9025700000000008
 15.3941800000000004 11.5302199999999999 12.0272699999999997
 12.7392000000000003 11.7305100000000007 11.2576499999999999
 16.0374899999999982 16.1735800000000012 10.7178900000000006
 13.2640300000000000 16.4037199999999999 10.5449900000000003
 14.4367000000000001 13.8189100000000007 10.7188800000000004
 14.8793799999999994 18.4897199999999984  9.9150100000000005
