Au
 1.0000000000000000
    28.5800877279999987    0.0000000000000000    0.0000000000000000
     0.0000000000000000   29.7814935230000017    0.0000000000000000
     0.0000000000000000    0.0000000000000000   27.6056312380000008
 Au 
  36
Cartesian
 14.4239599999999992 16.1620300000000015 17.6183499999999995
 11.8959700000000002 15.1867500000000000 17.3191500000000005
 16.4623699999999999 14.3604199999999995 17.4331500000000013
 14.9098199999999999 18.7410999999999994 16.8593399999999995
 13.9588900000000002 13.4668600000000005 16.7620700000000014
 12.3820499999999996 17.7657799999999995 16.4651400000000017
 16.9500500000000009 16.9371900000000011 16.5753899999999987
 11.7015200000000004 13.4593100000000003 15.1995900000000006
 10.6086600000000004 16.0699499999999986 15.0432500000000005
 16.1424500000000002 12.6534800000000001 15.3122399999999992
 18.0832300000000004 14.7154500000000006 15.2275899999999993
 13.6645000000000003 11.5625400000000003 14.7170600000000000
 13.7033699999999996 19.4841400000000000 14.5061000000000000
 16.4125799999999984 18.9912500000000009 14.5734300000000001
 11.1047100000000007 18.6681999999999988 14.1632599999999993
 18.5724699999999991 17.3119000000000014 14.3466400000000007
 13.2494599999999991 16.6418500000000016 13.8713599999999992
 15.8723799999999997 16.1644800000000011 13.9227200000000000
 10.0577400000000008 14.1791599999999995 13.1301400000000008
 14.1555800000000005 14.1238899999999994 13.3844600000000007
 18.0325400000000009 12.7327600000000007 13.3307300000000009
 11.7137300000000000 12.0266400000000004 12.7751099999999997
 15.7459100000000003 11.2976200000000002 12.8764500000000002
 10.7895199999999996 16.6721100000000000 12.2428000000000008
 13.4213699999999996  9.8942300000000003 12.4283999999999999
 15.2061399999999995 19.7350299999999983 12.2215799999999994
 18.2650599999999983 15.3153199999999998 12.4266900000000007
 12.6772899999999993 18.7481399999999994 11.8688900000000004
 17.2454500000000017 17.9247399999999999 11.9808299999999992
 11.9589300000000005 14.3244100000000003 11.1656399999999998
 16.3981700000000004 13.5210100000000004 11.2783200000000008
 13.8976699999999997 12.3454899999999999 11.0663999999999998
 14.8840000000000003 17.7087299999999992 10.4148800000000001
 12.3662899999999993 16.7610300000000016  9.9796399999999998
 14.3875100000000007 14.9091600000000000 10.0266800000000007
 16.9283800000000006 15.9356000000000009 10.0936100000000000
