Au
 1.0000000000000000
    28.2957145449999992    0.0000000000000000    0.0000000000000000
     0.0000000000000000   28.8311051280000008    0.0000000000000000
     0.0000000000000000    0.0000000000000000   28.3923263530000014
 Au 
  34
Cartesian
 15.1325199999999995 13.5871999999999993 18.3496999999999986
 14.5523900000000008 16.1892800000000001 18.0105499999999985
 12.5650999999999993 14.1898499999999999 17.6690100000000001
 13.9336300000000008 18.8180599999999991 17.5687600000000010
 12.0447699999999998 16.9110200000000006 17.0416799999999995
 13.7163400000000006 11.7849599999999999 16.8488399999999992
 16.7436800000000012 15.0673899999999996 16.6812900000000006
 10.2560699999999994 14.9908199999999994 16.4677199999999999
 16.5241499999999988 12.2580100000000005 16.4469400000000014
 15.7623400000000000 17.5538799999999995 15.8999299999999995
 15.2884600000000006 10.1158300000000008 15.3489400000000007
 11.2346299999999992 12.4977699999999992 15.8920700000000004
 13.2458500000000008 18.2812899999999985 14.9288200000000000
 18.3067199999999985 13.6714400000000005 14.9060299999999994
 12.7267299999999999 10.5671599999999994 14.5414899999999996
 10.9844100000000005 16.7241299999999988 14.4589200000000009
 17.3218199999999989 16.1183699999999988 14.1922200000000007
  9.9560700000000004 14.1473899999999997 13.9138300000000008
 16.8991299999999995 11.6345100000000006 13.7149000000000001
 10.4112200000000001 11.5176099999999995 13.4680900000000001
 15.3205200000000001 17.7681299999999993 13.1873600000000000
 14.8291400000000007 10.0451499999999996 12.7028599999999994
 12.6712000000000007 17.4586299999999994 12.3974600000000006
 17.4214400000000005 13.9690499999999993 12.3371099999999991
 10.4688300000000005 15.9244299999999992 11.8824699999999996
 12.3215199999999996 10.7655100000000008 11.7356099999999994
 16.0185299999999984 11.9923999999999999 11.0966199999999997
 17.1567700000000016 16.5549600000000012 11.5023099999999996
 11.1390799999999999 13.2892100000000006 11.4928799999999995
 15.4641400000000004 14.6187900000000006 10.4693199999999997
 14.6638699999999993 17.2728600000000014 10.5400399999999994
 13.4998299999999993 12.7175799999999999 10.1267300000000002
 12.7693999999999992 15.3065200000000008 10.5437100000000008
 14.3301999999999996 10.0689899999999994 10.0120299999999993
