Au
 1.0000000000000000
    28.2978439279999989    0.0000000000000000    0.0000000000000000
     0.0000000000000000   28.4375539000000011    0.0000000000000000
     0.0000000000000000    0.0000000000000000   28.3978325470000001
 Au 
  34
Cartesian
 14.4688499999999998 14.4164700000000003 18.3826700000000010
 13.7897300000000005 11.8258100000000006 17.5377100000000006
 16.4266800000000011 12.5808300000000006 17.7632399999999997
 15.0106599999999997 17.0563099999999999 17.7596600000000002
 12.3905899999999995 16.1964199999999998 17.5413299999999985
 11.8212899999999994 13.6028800000000007 18.1615399999999987
 16.9009000000000000 15.1718499999999992 17.0283100000000012
 14.3524600000000007 15.2449999999999992 15.5572300000000006
 10.5211000000000006 14.6647900000000000 15.9869100000000000
 13.2129300000000001  9.9972899999999996 15.6010799999999996
 15.7743800000000007 10.9688700000000008 15.6520499999999991
 13.5360999999999994 18.0761099999999999 15.6516900000000003
 10.9017900000000001 17.3859199999999987 15.5967400000000005
 11.1963000000000008 11.9558199999999992 16.0502700000000011
 16.3088599999999992 17.4357000000000006 15.3448700000000002
 17.6812900000000006 13.0145900000000001 15.3559999999999999
 18.2755000000000010 15.6163399999999992 14.7060800000000000
 13.5138800000000003 12.8245799999999992 14.7152899999999995
  9.9609400000000008 15.8817199999999996 13.5342500000000001
 11.5822699999999994 10.7081499999999998 13.5347899999999992
 17.0481599999999993 11.2993199999999998 13.2705000000000002
 14.7874800000000004 18.4716999999999985 13.2620000000000005
 14.3878699999999995 10.5903399999999994 13.1023999999999994
 14.5766700000000000 14.5739400000000003 12.9553200000000004
 12.2317499999999999 17.4695600000000013 13.1642600000000005
 10.6921300000000006 13.2787000000000006 13.5602400000000003
 16.7327200000000005 16.6565000000000012 12.6791699999999992
 17.5624499999999983 13.9086900000000000 12.6915600000000008
 11.8065499999999997 15.1114499999999996 11.7149999999999999
 12.6810500000000008 12.4087099999999992 11.7301699999999993
 15.4931300000000007 12.4056499999999996 11.2777700000000003
 14.1113599999999995 16.7456299999999985 11.2314000000000007
 16.2709200000000003 15.0231300000000001 10.5474599999999992
 13.7224599999999999 14.2213100000000008 10.0017399999999999
