Au
 1.0000000000000000
    29.7034865239999988    0.0000000000000000    0.0000000000000000
     0.0000000000000000   30.3924392449999985    0.0000000000000000
     0.0000000000000000    0.0000000000000000   29.3560332449999990
 Au 
  45
Cartesian
 15.9987399999999997 16.8130400000000009 19.1704599999999985
 15.5135199999999998 14.1144999999999996 19.4185300000000005
 16.6339800000000011 19.5063500000000012 18.6911999999999985
 16.8089599999999990 12.0825499999999995 18.0586699999999993
 13.9842399999999998 15.6551399999999994 17.6122399999999999
 17.2281100000000009 14.8921500000000009 17.4533999999999985
 14.5721900000000009 18.3354600000000012 17.3052700000000002
 14.4635599999999993 12.9944600000000001 17.0249699999999997
 17.5231899999999996 17.5879000000000012 16.9194600000000008
 16.4014300000000013 20.0881800000000013 16.0014399999999988
 12.6251599999999993 17.1938899999999997 15.7607300000000006
 15.9946300000000008 10.8560599999999994 15.7677700000000005
 12.5872499999999992 14.4163499999999996 15.5353899999999996
 17.8794399999999989 12.9549699999999994 15.5943100000000001
 18.3779000000000003 15.6976800000000001 15.1023800000000001
 15.5603800000000003 14.3074700000000004 14.7480399999999996
 13.8593399999999995 19.6373099999999994 14.9454700000000003
 15.4055400000000002 17.1222899999999996 14.7999100000000006
 13.6423299999999994 11.9994099999999992 14.6040700000000001
 17.9839400000000005 18.3612299999999991 14.3169000000000004
 11.0248500000000007 15.9890299999999996 13.8605199999999993
 11.6579200000000007 18.7131100000000004 13.6330899999999993
 15.0648400000000002  9.9492399999999996 13.3592499999999994
 17.3242900000000013 11.4592399999999994 13.3319200000000002
 16.0562100000000001 20.0316100000000006 13.2657399999999992
 13.7690199999999994 15.6296199999999992 13.0809200000000008
 11.8564699999999998 13.4424200000000003 12.9917700000000007
 18.6506200000000000 13.8681500000000000 13.0820699999999999
 16.4374199999999995 15.7694600000000005 12.5566600000000008
 19.2290099999999988 16.5864000000000011 12.6297700000000006
 13.4944400000000009 20.3735099999999996 12.3199299999999994
 12.9868000000000006 11.1617300000000004 12.0275900000000000
  9.9763000000000002 17.5373799999999989 11.8157399999999999
 17.9472200000000015 18.9375399999999985 11.5849100000000007
 15.5411400000000004 11.6185299999999998 11.1412999999999993
 11.7282499999999992 15.5372000000000003 11.0758799999999997
 12.5781100000000006 18.1574999999999989 10.9635899999999999
 15.2416400000000003 18.7337699999999998 10.9211100000000005
 13.5994299999999999 13.5459999999999994 10.7315299999999993
 18.1909300000000016 12.2864100000000001 10.8468800000000005
 14.3660499999999995 16.1687599999999989 10.2340400000000002
 18.9416200000000003 14.8513500000000001 10.4191099999999999
 16.2264200000000010 14.1211099999999998 10.1266400000000001
 17.0100300000000004 16.8301300000000005  9.9474300000000007
 19.7211199999999991 17.4836400000000012 10.0744100000000003
