Au
 1.0000000000000000
    29.8455321729999987    0.0000000000000000    0.0000000000000000
     0.0000000000000000   30.4152484289999983    0.0000000000000000
     0.0000000000000000    0.0000000000000000   29.4680321919999990
 Au 
  45
Cartesian
 18.5848300000000002 15.3494100000000007 19.4795400000000001
 17.8261600000000016 12.7254500000000004 19.2867199999999990
 15.9697600000000008 14.7004999999999999 18.6102999999999987
 16.9358299999999993 17.2681199999999997 18.3611100000000000
 15.4867899999999992 11.9173399999999994 18.1079299999999996
 13.6699699999999993 13.9634300000000007 17.2810400000000008
 18.5773599999999988 19.2390800000000013 17.2623700000000007
 14.5057100000000005 16.6032900000000012 17.1907099999999993
 19.5075800000000008 16.6097900000000003 17.1951099999999997
 19.2055700000000016 13.8723399999999994 17.1451999999999991
 18.0021899999999988 11.2739799999999999 16.9681399999999982
 13.2092799999999997 11.2700300000000002 16.7333299999999987
 15.9731500000000004 18.8089200000000005 16.2638800000000003
 12.2117000000000004 15.8335399999999993 15.8550199999999997
 16.4256600000000006 13.4334100000000003 15.7963699999999996
 11.5415899999999993 13.0874100000000002 15.6087799999999994
 17.0577100000000002 16.1913899999999984 15.6309799999999992
 15.6216899999999992 10.5247399999999995 15.6652600000000000
 13.6949100000000001 18.0188699999999997 14.9393700000000003
 17.8147599999999997 20.4180999999999990 14.9056899999999999
 19.1875199999999992 17.9836700000000000 14.8075899999999994
 19.8016700000000014 15.2446400000000004 14.7923799999999996
 19.2808999999999990 12.5233500000000006 14.7411200000000004
 10.0075299999999991 15.0171899999999994 14.3985500000000002
 14.7256099999999996 15.2572299999999998 14.5000099999999996
 18.0683599999999984 10.0236000000000001 14.5319699999999994
 13.8330800000000007 12.2052999999999994 14.1864899999999992
 15.4946500000000000 19.7581899999999990 13.6278100000000002
 11.5368899999999996 17.0475400000000015 13.3776499999999992
 17.2114399999999996 14.6224200000000000 13.3742300000000007
 12.3445199999999993 14.3002000000000002 13.1482100000000006
 16.2713399999999986 11.5822900000000004 13.0848600000000008
 17.9676900000000010 19.1224799999999995 12.5087200000000003
 13.1988199999999996 18.9505599999999994 12.3733699999999995
 19.2343800000000016 16.5985699999999987 12.4301100000000009
 19.8539899999999996 13.8733299999999993 12.3946799999999993
 18.9554499999999990 11.1862899999999996 12.2490699999999997
 14.7589900000000007 13.6514500000000005 11.9930599999999998
 13.8359600000000000 16.2910800000000009 11.8884000000000007
 15.6150000000000002 18.3959100000000007 11.2014399999999998
 17.2308400000000006 13.0493699999999997 10.9389299999999992
 16.2774700000000010 15.6673799999999996 10.7849900000000005
 18.0610700000000008 17.7072399999999988 10.1694600000000008
 18.9626300000000008 15.1467600000000004 10.0143000000000004
 19.7538699999999992 12.5233600000000003  9.9844500000000007
