H 
 1.0000000000000000
     4.1712889999999998    0.0000000000000000    0.0000000000000000
     0.0000000000000000    4.1712889999999998    0.0000000000000000
     0.0000000000000000    0.0000000000000000    4.1712889999999998
 H  
   4
Cartesian
  4.0320400000000003  4.1758400000000000  4.1877399999999998
  0.0398603000000000  2.1507999999999998  2.1464500000000002
  2.0868199999999999 -0.0599368000000000  2.0383499999999999
  2.1838600000000001  2.0758800000000002 -0.0299583000000000
