H 
 1.0000000000000000
     4.1712889999999998    0.0000000000000000    0.0000000000000000
     0.0000000000000000    4.1712889999999998    0.0000000000000000
     0.0000000000000000    0.0000000000000000    4.1712889999999998
 H  
   4
Cartesian
  4.1378100000000000  4.0663400000000003  4.2278500000000001
 -0.1385450000000000  2.0163600000000002  2.0668500000000001
  2.2490700000000001  0.1116900000000000  2.0959500000000002
  2.0942400000000001  2.1481900000000000 -0.0480790000000000
