H 
 1.0000000000000000
     4.1712889999999998    0.0000000000000000    0.0000000000000000
     0.0000000000000000    4.1712889999999998    0.0000000000000000
     0.0000000000000000    0.0000000000000000    4.1712889999999998
 H  
   4
Cartesian
  4.2727399999999998  4.1900599999999999  4.1988200000000004
 -0.1114980000000000  2.1415299999999999  2.1615799999999998
  2.1841599999999999 -0.0869536000000000  2.0281300000000000
  1.9971699999999999  2.0979399999999999 -0.0459564000000000
