H 
 1.0000000000000000
     4.1712889999999998    0.0000000000000000    0.0000000000000000
     0.0000000000000000    4.1712889999999998    0.0000000000000000
     0.0000000000000000    0.0000000000000000    4.1712889999999998
 H  
   4
Cartesian
  4.2985400000000000  4.1742800000000004  4.2532300000000003
  0.0184987000000000  1.9590099999999999  2.1075200000000001
  1.9928200000000000  0.1217100000000000  2.0489999999999999
  2.0327099999999998  2.0875800000000000 -0.0671680000000000
