H 
 1.0000000000000000
     4.1712889999999998    0.0000000000000000    0.0000000000000000
     0.0000000000000000    4.1712889999999998    0.0000000000000000
     0.0000000000000000    0.0000000000000000    4.1712889999999998
 H  
   4
Cartesian
  4.1542300000000001  4.2237400000000003  4.1130000000000004
  0.1013680000000000  2.1465500000000000  2.2383099999999998
  2.0962600000000000 -0.0536667000000000  2.0068800000000002
  1.9907100000000000  2.0259600000000000 -0.0156196000000000
