H 
 1.0000000000000000
     4.1712889999999998    0.0000000000000000    0.0000000000000000
     0.0000000000000000    4.1712889999999998    0.0000000000000000
     0.0000000000000000    0.0000000000000000    4.1712889999999998
 H  
   4
Cartesian
  4.0929900000000004  4.1042899999999998  4.1635400000000002
  0.0267921000000000  1.9801500000000001  2.1021700000000001
  1.9925400000000000  0.0363133000000000  2.0121400000000000
  2.2302599999999999  2.2218300000000002  0.0647373000000000
