H 
 1.0000000000000000
     4.1712889999999998    0.0000000000000000    0.0000000000000000
     0.0000000000000000    4.1712889999999998    0.0000000000000000
     0.0000000000000000    0.0000000000000000    4.1712889999999998
 H  
   4
Cartesian
  4.1055799999999998  4.0947100000000001  4.0427000000000000
 -0.0460382000000000  2.0371400000000000  2.1819700000000002
  2.0212500000000002  0.0833322000000000  2.0289600000000001
  2.2617799999999999  2.1273900000000001  0.0889431000000000
