H 
 1.0000000000000000
     4.1712889999999998    0.0000000000000000    0.0000000000000000
     0.0000000000000000    4.1712889999999998    0.0000000000000000
     0.0000000000000000    0.0000000000000000    4.1712889999999998
 H  
   4
Cartesian
  4.1670299999999996  4.1822499999999998  4.1683100000000000
  0.0456361000000000  2.0513800000000000  2.1306200000000000
  2.0010200000000000  0.0078978700000000  2.1402500000000000
  2.1288999999999998  2.1010499999999999 -0.0965978000000000
