H 
 1.0000000000000000
     4.1712889999999998    0.0000000000000000    0.0000000000000000
     0.0000000000000000    4.1712889999999998    0.0000000000000000
     0.0000000000000000    0.0000000000000000    4.1712889999999998
 H  
   4
Cartesian
  4.3213499999999998  4.1262499999999998  4.1530699999999996
 -0.0511014000000000  2.0802900000000002  2.0744400000000001
  2.1586799999999999  0.0488670000000000  2.1111100000000000
  1.9136500000000001  2.0871599999999999  0.0039620000000000
