H 
 1.0000000000000000
     4.1712889999999998    0.0000000000000000    0.0000000000000000
     0.0000000000000000    4.1712889999999998    0.0000000000000000
     0.0000000000000000    0.0000000000000000    4.1712889999999998
 H  
   4
Cartesian
  4.3411000000000000  4.1668099999999999  4.1315900000000001
 -0.0500107000000000  2.1898800000000000  2.0672500000000000
  2.1125400000000001 -0.0182836000000000  2.1047099999999999
  1.9389500000000000  2.0041699999999998  0.0390265000000000
