Au39 rank 6
1.0
   31.2704067216700139    0.0000000000000000    0.0000000000000000
    0.0000000000000000   30.1078521833300243    0.0000000000000000
    0.0000000000000000    0.0000000000000000   28.1771664522027230
  Au
  39
Direct
    0.5344818058431495    0.4443694304308093    0.6431063210240335
    0.4512244973573685    0.4167323065986800    0.6342040415702914
    0.3918381458773624    0.4826432028329446    0.6255813015771061
    0.4760885197969702    0.5048694055924029    0.6107050664788386
    0.5867154924655912    0.4158258229278692    0.5718156742564607
    0.5177848874648509    0.3628807514971008    0.6018865239914496
    0.4353690262417039    0.3342599613149991    0.5927699935444426
    0.5566187812397021    0.5025840675206531    0.5714325199836021
    0.3747289816278674    0.3997712185125542    0.5871261394272050
    0.4126085801579091    0.5432808380721537    0.5562375655496332
    0.4983018358008699    0.5650644387494488    0.5425430055315794
    0.3489135198894997    0.4797424397604174    0.5415473817881633
    0.5743634379700574    0.3312934681755394    0.5358081008124088
    0.6207916681959772    0.4774356258875249    0.5115246228599999
    0.4890084748807003    0.3316677049484529    0.5145142730585008
    0.4039550887721354    0.3534962767575743    0.5042987883667958
    0.5750475896848823    0.5527579252662160    0.4929841225033140
    0.3708649027365864    0.5391867226542002    0.4701701656624003
    0.3259652163583976    0.3958837484289984    0.5090314938740583
    0.4338257636626052    0.6007476649524877    0.4856282255280331
    0.5193130212912015    0.6179039554969926    0.4671613018366310
    0.6815668891441825    0.4480678473990648    0.4465242972236593
    0.3204143701357235    0.4674152600364917    0.4492029062310907
    0.4547923847979021    0.6538583704320273    0.4088800326867421
    0.6310551918042341    0.3859261226218109    0.4916785505852943
    0.6373458600857138    0.5239776501386477    0.4263093421604624
    0.5904657580508198    0.5966668290289596    0.4072820223597792
    0.5477909653316110    0.3694605717334520    0.4519558243162862
    0.4176472910462965    0.5718708491247456    0.3933722811882014
    0.5402647642215491    0.6673751314440872    0.3863691016503023
    0.5977802828091099    0.4387008099405939    0.4180007450350173
    0.3778241289582362    0.4011254999556366    0.4267364695387792
    0.3857029298964910    0.4881992959958926    0.3889970963061113
    0.5046593608045283    0.5845517211761850    0.3709623704160264
    0.5555708911573136    0.5122375373169156    0.3856119051423598
    0.4613917323948942    0.3688337985909866    0.4311108693325911
    0.5173338742027022    0.4284850046173368    0.3859765861352267
    0.4703974984805911    0.5029519296383220    0.3612513244398101
    0.4353131660027900    0.4201678966608305    0.3562750489020368
