Au39 rank 20
1.0
   29.4912618279587022    0.0000000000000000    0.0000000000000000
    0.0000000000000000   29.2049737541369865    0.0000000000000000
    0.0000000000000000    0.0000000000000000   28.7653968601885381
  Au
  39
Direct
    0.5069454313600846    0.4376283592160375    0.6236916101220717
    0.5181687429295223    0.5267321016555352    0.6515139738099236
    0.5805484928114337    0.3859755051057002    0.5984417077043920
    0.4222211050531771    0.4084073419948898    0.5984762762040255
    0.5909710669438587    0.4835915691031477    0.6097406731683702
    0.4402734702096116    0.5029606168571407    0.6044464545045870
    0.6496324306611067    0.3379061091856329    0.5590609268187190
    0.5759233886036256    0.5760237233535520    0.5961844142280597
    0.4774752566221419    0.5874348714096701    0.5905610270238960
    0.5370568532174762    0.6582592496326368    0.5702380601286064
    0.4975241806264570    0.3687262600767549    0.5552910587710709
    0.3419012559540495    0.3834747048938595    0.5561834108370005
    0.5483966417124454    0.4500892347211747    0.5255514020954597
    0.6447909205643350    0.4361646867120306    0.5472262435411147
    0.3769044056696730    0.4716034363289651    0.5417094496284506
    0.6217984281202772    0.5250944483552048    0.5275883584728009
    0.4207801106960732    0.5533249250886724    0.5230037294309161
    0.5740760836906945    0.3505944911580860    0.5040532178659342
    0.5837323743584992    0.6101250844385722    0.5055992440818076
    0.4193667675376981    0.3772838888277075    0.5044217423842965
    0.4865750694309779    0.6180714665701847    0.5002397919398014
    0.4645701322288016    0.4676261298932728    0.4907493136059918
    0.5324355264296041    0.5286185249660295    0.4789794341897535
    0.6599108275354022    0.3782609534026189    0.4728426169890668
    0.3405692209678751    0.4195719974832628    0.4677098173382769
    0.4994187605850400    0.3766964320461119    0.4556037194772087
    0.6472887378475344    0.4685289325224070    0.4539189919793143
    0.3808895265353941    0.5048460850107643    0.4514501251582395
    0.6187335040517257    0.5564005380431746    0.4367089432383165
    0.4518979963713582    0.5634531952100359    0.4309190995354209
    0.5832664536287846    0.4035714638119081    0.4231044172864205
    0.5362983713035114    0.6079811131068605    0.4186125060331359
    0.4228387060577352    0.4107635103536021    0.4145789005116368
    0.5068914601824960    0.4421551185987604    0.3849083706105473
    0.5901856313007561    0.4862654020242427    0.3781830012779006
    0.3468942213235969    0.4529487052811503    0.3777463991769633
    0.4287325080038490    0.4949255033097540    0.3665025391661886
    0.5097933882959947    0.5353673980582780    0.3591344935885696
    0.5911947433377267    0.5774257649285165    0.3471726644572963
