Au
 1.0000000000000000
    30.3107034499999983    0.0000000000000000    0.0000000000000000
     0.0000000000000000   27.4062060510000016    0.0000000000000000
     0.0000000000000000    0.0000000000000000   30.4819468369999989
 Au 
  39
Cartesian
 13.5406700000000004 16.5675500000000007 18.2631599999999992
 15.8689699999999991 13.4543900000000001 20.1118200000000016
 12.9746400000000008 14.2288399999999999 19.7253100000000003
 14.9427699999999994 15.9812300000000000 20.5349399999999989
 13.9125700000000005 11.6011000000000006 19.7193399999999990
 16.1990400000000001 11.5980799999999995 18.0951799999999992
 17.6573300000000017 15.5903399999999994 20.2680700000000016
 17.8597800000000007 13.8100600000000000 18.1618700000000004
 11.4248999999999992 14.8939400000000006 17.4654699999999998
 11.7158599999999993 12.2088699999999992 18.1741999999999990
 13.7207100000000004 10.3837499999999991 17.2638399999999983
 12.1018100000000004 17.1662099999999995 16.0430999999999990
 16.2982599999999991 16.9150999999999989 18.2529499999999985
 19.0974700000000013 16.3764199999999995 18.1054899999999996
 14.8414500000000000 17.4300099999999993 15.9482599999999994
 10.0293299999999999 12.9410500000000006 16.0929399999999987
 16.0457399999999986 10.0621600000000004 15.8428400000000007
 13.9720399999999998 13.5788100000000007 14.5449800000000007
 14.1227900000000002 13.5197400000000005 17.2556100000000008
 19.0301399999999994 14.7036899999999999 15.8009199999999996
 17.6601700000000008 12.2925900000000006 15.8266700000000000
 11.3077400000000008 10.5176400000000001 15.9790299999999998
 20.3957300000000004 17.1336300000000001 15.8344699999999996
 17.6118099999999984 17.2834099999999999 15.8495399999999993
 16.0775599999999983 14.7711799999999993 15.8283199999999997
 13.6614100000000001 10.5210799999999995 14.5041100000000007
 11.2565200000000001 14.9461800000000000 14.6685599999999994
 16.1015400000000000 11.6204400000000003 13.6087600000000002
 13.4090100000000003 16.4989699999999999 13.7441499999999994
 11.5160499999999999 12.2559900000000006 13.8400900000000000
 18.9884799999999991 16.4272999999999989 13.5594800000000006
 17.7869199999999985 13.8082799999999999 13.4860900000000008
 16.1397000000000013 16.8139800000000008 13.5478400000000008
 13.7037099999999992 11.8815100000000005 12.1235199999999992
 12.3475300000000008 14.3639299999999999 12.2076100000000007
 16.0689600000000006 13.2433599999999991 11.4016699999999993
 17.4919699999999985 15.6446900000000007 11.4414899999999999
 14.7100100000000005 15.6995900000000006 11.4685699999999997
 13.7316699999999994 13.5703499999999995  9.9497400000000003
