Au39 rank 7
1.0
   28.3742970405767672    0.0000000000000000    0.0000000000000000
    0.0000000000000000   27.2951871499353409    0.0000000000000000
    0.0000000000000000    0.0000000000000000   27.3918886445092191
  Au
  39
Direct
    0.5559492685523363    0.5365341715089195    0.6372637831166945
    0.4581209038333579    0.5250147323788474    0.6289589689046243
    0.5078976394529431    0.4542904422811500    0.6753404163428042
    0.5062294921607824    0.6104440878218463    0.5910127118189351
    0.6030954512099483    0.6177213579759187    0.5958011595989801
    0.4469921936813798    0.4262444407161027    0.5996846867362967
    0.5880639146087464    0.4424290052372510    0.6196384475309888
    0.4831011073072716    0.3523763580213737    0.5381074526776788
    0.5793744750846814    0.3700761333560232    0.5457946973373043
    0.4129451874933582    0.5929951257726823    0.5711427442507269
    0.6346575954764238    0.5260755465325127    0.5763627878671865
    0.3990297988450754    0.4054856739345609    0.5120867273402920
    0.4827239993496262    0.5256902368514681    0.5304074053789817
    0.5217588194262270    0.3662946347650969    0.6283142637002244
    0.3890441733383949    0.4963268715935493    0.5572605970207660
    0.6567544270715322    0.4313495762747794    0.5500064785621270
    0.5562222083348464    0.6678341200656620    0.5233151094736951
    0.4685989957133966    0.6294842169506513    0.4969245302169705
    0.6568925822150763    0.5006038060925889    0.4769971578824329
    0.5678470690379243    0.4762895892439411    0.5203918299572619
    0.6161341676900752    0.5907410681355106    0.4979966388882283
    0.3858747667277859    0.5694834575675078    0.4791656742615232
    0.5459378644023305    0.3525249570871404    0.4530990277044750
    0.6336578266712348    0.3972797132631913    0.4602019709381999
    0.3437438969725244    0.4775030392355157    0.4703493337798090
    0.6524476060220217    0.4623484386413542    0.3841036170776198
    0.4888430076148007    0.4381834766678424    0.4785382262129608
    0.4484789536460040    0.3490040151512130    0.4442872097253366
    0.5252314542798732    0.5225456061727808    0.4413021817848453
    0.5454464571143570    0.6248935956184792    0.4340347831608833
    0.6135950625367145    0.5533525446452645    0.4023076106991413
    0.5931915227357845    0.3831667155918551    0.3700718632917979
    0.3767727592728857    0.5264952357965966    0.3888476827923943
    0.4516125936737196    0.5891595989219182    0.4065037789499033
    0.4984719377840333    0.4042708270937798    0.3759586892552723
    0.5623028276487406    0.4770796229905536    0.3486772295971539
    0.4072124240553595    0.4320936076501911    0.4085362456803285
    0.4643096388026908    0.4971998662781481    0.3567854270003210
    0.5310803562761675    0.5718737267252433    0.3498708839483699
