Au39 rank 2
1.0
   30.8165558747779897    0.0000000000000000    0.0000000000000000
    0.0000000000000000   28.6886138916925049    0.0000000000000000
    0.0000000000000000    0.0000000000000000   30.5746324578317470
  Au
  39
Direct
    0.5529015858314920    0.5426461586233128    0.6716369510564454
    0.6045566566976499    0.4712472300243826    0.6444390073320388
    0.5094762808234294    0.4686289958002548    0.6356134852341391
    0.4778469411461951    0.5567823338116747    0.6238952589311432
    0.5599454224979322    0.3915544452331406    0.6303626837533970
    0.5508245336659410    0.6165280631475536    0.6154097506139884
    0.6256073012211455    0.5624115871066570    0.6218420085620041
    0.4723679226369272    0.6436155395136075    0.5848148551418416
    0.6767558943835397    0.4896444796643163    0.5952356144833886
    0.4387495236203819    0.4817281199765014    0.5818456742090961
    0.6227613864406565    0.6403400008201692    0.5684577631180742
    0.4914577540590979    0.4048600806357578    0.5702672979972023
    0.6275506650698357    0.4144553859173997    0.5731209288144111
    0.4197491997784708    0.5717478981166263    0.5574296868322206
    0.5423215865066715    0.6497207807328124    0.5291870854926646
    0.5636993599762121    0.3510100930507705    0.5493462783686437
    0.6678089685883110    0.5637921655902915    0.5399394747709269
    0.3735143524333011    0.4989919732731455    0.5209345765474930
    0.4380671557731374    0.4334915973433888    0.5036692440030661
    0.4608547090771715    0.6307883084002737    0.4973399679532662
    0.3902730579733636    0.5807483275549864    0.4720568033465286
    0.3218476501326185    0.5240748949154634    0.4497159534672033
    0.6613378745879049    0.4719717224933066    0.5078998009617388
    0.5121715694531984    0.3843256250718653    0.4841192594746316
    0.6042446300369971    0.4024593120486422    0.4863704591489295
    0.6659804579067382    0.5471417011975249    0.4531864947273810
    0.3995723055439890    0.4820312690529456    0.4350023833370830
    0.6118827207267249    0.6159793413056613    0.4824366800084804
    0.5327585807077209    0.6274163997199901    0.4421485225797721
    0.4761553425943897    0.4399140506437320    0.4209963231188696
    0.4483139543440823    0.6139822834005976    0.4117220121415257
    0.6166266762928044    0.4742697903841661    0.4269747969181437
    0.3735866501874490    0.5604991690058145    0.3835341951407563
    0.5576744882748116    0.4048859063151412    0.4102312635325290
    0.5930553575716186    0.5670198740091514    0.4060621828664132
    0.5411076267147229    0.4940448014319006    0.3817966227359712
    0.4541489490222085    0.5151742840847969    0.3714148616551922
    0.5177441197649387    0.5851882060830391    0.3604303313572662
    0.4345317330450170    0.5948689896364487    0.3257932029847516
