Au39 rank 16
1.0
   29.0773393594154399    0.0000000000000000    0.0000000000000000
    0.0000000000000000   29.0870617725011513    0.0000000000000000
    0.0000000000000000    0.0000000000000000   29.0707773107326659
  Au
  39
Direct
    0.4680605023427238    0.3904715713632463    0.5974773147241111
    0.5010184462903653    0.4649977692854900    0.6470750634834073
    0.3520456554313950    0.5894587590282906    0.6115966317663954
    0.5170690734318867    0.5551867494395657    0.6186556703782061
    0.5882443137337658    0.4920012274932331    0.6249110596500485
    0.6208324647116110    0.3495396979229840    0.5549495283772462
    0.4303703564505256    0.5285476057512674    0.6368073834372036
    0.6510147768803246    0.4280139268592236    0.5977854332396513
    0.4434672539146126    0.5996205882964585    0.5772885513564948
    0.3433871344773366    0.4977221282762468    0.6308856660983595
    0.6036533591022690    0.5786853511449448    0.5916104899802876
    0.4107122650443135    0.4362876091801698    0.6581531930728954
    0.5610556944826131    0.4003541497783688    0.6112996108842623
    0.3660392012313732    0.6293296711399146    0.5278282115723998
    0.6466327907192956    0.5068532169014123    0.5474623152358145
    0.5311275618834658    0.6108442188756191    0.5417562097117662
    0.5279598974077715    0.3515593458048751    0.5368301126446867
    0.3954575364414866    0.4430824341619581    0.5650159097445645
    0.6566045971065152    0.4216839343141209    0.5033890114541781
    0.3723929396250046    0.5308273059461226    0.5420407813520426
    0.4572309317102544    0.6369965093681772    0.4920028656501941
    0.6105250416482587    0.5796006854147345    0.4979488302608847
    0.4460380528892426    0.3917891595580020    0.5040919004923373
    0.5958524748693681    0.3579984792437181    0.4651459890669164
    0.3825917911954625    0.6592850031072385    0.4391095265545652
    0.6480882724002068    0.5028357199733969    0.4531416515060094
    0.5377562952183302    0.6143330056864350    0.4465649574543141
    0.5047574462802771    0.3446645727394124    0.4464083721900862
    0.4072775076946390    0.4733022629331828    0.4754431166224502
    0.6457194065896605    0.4179607674439127    0.4110251189957731
    0.4540199760807707    0.6110873939869593    0.3983126199581036
    0.3936953289319445    0.5658791574391915    0.4588053276042222
    0.6121931627649905    0.5746014752179381    0.4040760956313342
    0.4612436865324965    0.4235371147152261    0.4166195890207588
    0.5540483641167847    0.4019329375265254    0.3907505883842027
    0.5946275773636680    0.4878886858602030    0.3738259672929962
    0.4444328878896381    0.5150017976044917    0.3987247373768589
    0.5257858992359128    0.5579122619764835    0.3702462762933974
    0.5063183283222560    0.4685111699386443    0.3457975940335849
