Au
 1.0000000000000000
    28.5166339419999986    0.0000000000000000    0.0000000000000000
     0.0000000000000000   29.5234911020000013    0.0000000000000000
     0.0000000000000000    0.0000000000000000   28.9653477869999989
 Au 
  39
Cartesian
 14.6214700000000004 13.4671900000000004 18.1521499999999989
 12.0940899999999996 12.6662599999999994 18.9138500000000001
 12.6179799999999993 15.4380299999999995 18.5951300000000010
 15.1594899999999999 16.2057800000000007 17.9639699999999998
 10.0153700000000008 14.5190400000000004 18.9281800000000011
 13.0559899999999995 17.5207100000000011 16.7068599999999989
 15.7963699999999996 12.1190899999999999 16.0032600000000009
 17.0782999999999987 14.2899600000000007 17.1810699999999983
 10.5923400000000001 16.1784500000000016 16.7967599999999990
 13.1053800000000003 11.6857000000000006 16.5401600000000002
 17.7524900000000017 16.9603900000000003 17.4164700000000003
 13.2095900000000004 14.6729299999999991 15.8316199999999991
 10.7694299999999998 13.3219999999999992 16.5368800000000000
 15.6666899999999991 18.3672499999999985 16.2304299999999984
 15.6366899999999998 15.7395600000000009 15.0159800000000008
 18.3350399999999993 18.3494300000000017 15.1218199999999996
 18.3365299999999998 12.8926900000000000 15.1557399999999998
 13.3508300000000002 16.1213200000000008 13.4487799999999993
 11.8669399999999996 12.4443400000000004 14.1493599999999997
 14.1555599999999995 10.7207100000000004 14.1974999999999998
 18.5462500000000006 15.6127400000000005 15.0451099999999993
 10.5778599999999994 14.9221599999999999 14.2937600000000007
 11.1930200000000006 17.7070900000000009 14.5892499999999998
 16.2976999999999990 19.4841000000000015 13.7139500000000005
 13.6886799999999997 18.9461900000000014 14.4139700000000008
 16.8055699999999995 11.4354099999999992 13.4486000000000008
 14.5788100000000007 13.6018000000000008 13.6153200000000005
 17.2338200000000015 16.9517899999999990 12.9120399999999993
 17.4222600000000014 14.1845199999999991 12.8830299999999998
 11.7064199999999996 14.0791400000000007 11.8824100000000001
 13.1789199999999997 11.7774099999999997 11.7828800000000005
 10.5641800000000003 16.5589699999999986 12.0917100000000008
 15.2342499999999994  9.9617100000000001 11.7228999999999992
 14.8852300000000000 18.0400799999999997 11.8605099999999997
 12.2169100000000004 18.7564500000000010 12.1093299999999999
 15.8537599999999994 12.6573899999999995 11.1456900000000001
 15.5909700000000004 15.4449799999999993 11.2449999999999992
 13.6919799999999992 13.8666999999999998  9.9536599999999993
 12.9709400000000006 16.4244400000000006 10.6323500000000006
