Au39 rank 9
1.0
   28.9549934561647682    0.0000000000000000    0.0000000000000000
    0.0000000000000000   29.9250702965989426    0.0000000000000000
    0.0000000000000000    0.0000000000000000   29.4857477661036107
  Au
  39
Direct
    0.5810463979729479    0.5256318433242259    0.6608604181075193
    0.5020861620313409    0.5457749034868162    0.6132810161903152
    0.5521945462623178    0.4638930333746837    0.5978881537694618
    0.6452769446782020    0.4951776149912921    0.5988129605760074
    0.4609420637793461    0.4737894516889310    0.5670523493095575
    0.5878931776048668    0.5690277902271221    0.5761822057796907
    0.4240629816380784    0.5626732338514997    0.5660347552426384
    0.5069095980042960    0.6033659726604794    0.5378273524656465
    0.4290971566296334    0.4154201195142196    0.5028733854961773
    0.5244184266769233    0.4120822561870482    0.5266358957404705
    0.3830210089794991    0.4954372094267331    0.5159783776288359
    0.6165264711296470    0.4426206072782889    0.5281195861539307
    0.4235997205884839    0.6207166567366245    0.4908356075226757
    0.5387875626484434    0.5095054140837588    0.5146207525040485
    0.6503094546708730    0.5331734912753561    0.5139055096867199
    0.3427751170429854    0.5803980872787851    0.5186162901621152
    0.5886959428093398    0.6013025991388041    0.4884074817379872
    0.5086105141735711    0.6442592018069292    0.4538808781715319
    0.4968913633415541    0.3663578127152757    0.4513363732691497
    0.6504453154514832    0.5637892564551494    0.4247329634805868
    0.4797820377838155    0.5514638112585025    0.4549591933207864
    0.4033911322099518    0.3709876246457489    0.4244852809186974
    0.4932340648128397    0.4615352194184203    0.4437492612500555
    0.5835441302861089    0.4057971126146319    0.4488481663703627
    0.6502317710663430    0.4719491474717779    0.4448600946391759
    0.3885417100156391    0.4614560771518157    0.4281324474572725
    0.3789119766918375    0.5524124476485326    0.4378102545838907
    0.5644842779390614    0.5198680950469790    0.4255163263889872
    0.4371585757297718    0.6106881110770601    0.3930525441763308
    0.5058141516589686    0.6660957864378731    0.3629506630325965
    0.4677902726071906    0.3319524262435030    0.3693909572461346
    0.5799230256462599    0.6177916698901026    0.3951194863327618
    0.5380606341441432    0.3920339096994932    0.3665199431357783
    0.4485491826346522    0.4268479817490504    0.3617094214663378
    0.4369544080342700    0.5187227297038923    0.3703871443911789
    0.6008872426980842    0.5420469630476258    0.3418928131015578
    0.6080069243447866    0.4518048043334020    0.3647662448238100
    0.5101042441051457    0.5744559771848432    0.3430849199570093
    0.5208725534478207    0.4833210656334536    0.3403613680690030
