Au39 rank 19
1.0
   30.7406037950592577    0.0000000000000000    0.0000000000000000
    0.0000000000000000   27.4557005094111304    0.0000000000000000
    0.0000000000000000    0.0000000000000000   30.1232843455973409
  Au
  39
Direct
    0.5253035302690944    0.5596035992798013    0.6680968634970935
    0.4144233751640631    0.4555541260714751    0.6409434510591788
    0.5027710384041194    0.4685895699057328    0.6340267581635027
    0.5766898704107078    0.5182089901595861    0.6046238915970291
    0.4450856564953836    0.5495958790508336    0.6271569981339737
    0.3710129176120188    0.4075427173661921    0.5767327670932032
    0.3831998499280537    0.5126288684230517    0.5715858200369334
    0.4623148139848980    0.4007124051934078    0.5782979177891798
    0.4286045734215136    0.5994615092616415    0.5495559989579810
    0.5153162399101522    0.5934997567485845    0.5816873852929924
    0.5477319883302318    0.4292187160543879    0.5645857430833808
    0.5674001028254823    0.5502906190610097    0.5174056297734684
    0.6262323201964775    0.4764739912159585    0.5420376380802042
    0.5043353435996740    0.3724018199351929    0.5014229211406493
    0.4753964844118490    0.5081919668267088    0.5395072175371962
    0.3393549211694591    0.4632551601051051    0.5063959723699754
    0.4168758362594026    0.3638459702365360    0.5064155550341427
    0.5907019936480661    0.3974354597535021    0.4902258344026049
    0.3264923832881581    0.3637322305523321    0.5090177055422347
    0.6746814607450952    0.4313641182402147    0.4779710751596982
    0.4167138831978225    0.6356778192821119    0.4663465105767319
    0.5183317508616517    0.4716909192464840    0.4668734019826177
    0.3698510453530067    0.5560162619885873    0.4898108409079600
    0.5017255231731260    0.6144675173084096    0.4930226923292399
    0.4286958534271917    0.4752974977581753    0.4693914524548594
    0.6113635391118790    0.4971645121335099    0.4522179605133521
    0.3406332888759656    0.4982362881948971    0.4201116469048845
    0.4519027694883908    0.3836298214280832    0.4239287834305343
    0.5401688507039717    0.3793872500017788    0.4167506593352993
    0.3646519578842900    0.4005482629826227    0.4341327963669203
    0.6271793301290346    0.4100924030760025    0.4031120545883958
    0.5486056744982925    0.5631156682516866    0.4273788274329704
    0.4804772115308731    0.6177187491115853    0.4038456132455723
    0.5618320233948590    0.4796613359728784    0.3778509924096072
    0.4055243769038707    0.5629683978283714    0.4017984604853144
    0.4130576505860899    0.4626848688606137    0.3765901339508309
    0.4823436002194998    0.5266161755372707    0.3674568919904925
    0.4900760101673715    0.4260137808393862    0.3485288379232238
    0.5730365480022300    0.3926500589935872    0.3323253327555689
