Au39 rank 11
1.0
   28.6369394569685127    0.0000000000000000    0.0000000000000000
    0.0000000000000000   27.9607480621440310    0.0000000000000000
    0.0000000000000000    0.0000000000000000   29.7826208456074006
  Au
  39
Direct
    0.5360794994285427    0.4970891139357980    0.6662505138926195
    0.4660913046659226    0.5168009395723165    0.6057101288679001
    0.5304678755970003    0.5870378820054315    0.6261084168001533
    0.4063710170739436    0.4440827628475186    0.5808844371239250
    0.4739271870448979    0.4251940113679497    0.6481992406951385
    0.4106858103029742    0.3554585953731879    0.6226558107654125
    0.5518177063432981    0.4400369969274722    0.5917825258668636
    0.5995441843925493    0.5267385199559207    0.5980451122611675
    0.4759911396199196    0.5964320686864037    0.5496089406129974
    0.4040647358624774    0.5314722808159639    0.5371158901656121
    0.4840496917466525    0.4665271814956540    0.5182155107537255
    0.4835915615169852    0.3744936630774836    0.5654284940853989
    0.5716876150384629    0.6103358205197874    0.5446239701899436
    0.3628904257052095    0.4497563522192446    0.4979722544886195
    0.6212134102851151    0.4628028780757750    0.5308495570133746
    0.3925393161928163    0.3605624775109950    0.5309027244033897
    0.6488279629372927    0.5571495141875210    0.5248287830006674
    0.5584367294726500    0.3909399904900497    0.5100714285803641
    0.5154983886028042    0.6345661750085961    0.4719722420890654
    0.4215403413123037    0.6036746979277950    0.4753676504385575
    0.3501275568812519    0.5385539230115071    0.4623553367294073
    0.4733564726896747    0.3713688058374006    0.4720254327821179
    0.5452478876408783    0.5331350633028561    0.4876541519817164
    0.6319831492394162    0.4090846029211125    0.4553020123242842
    0.6070153134477054    0.6021489095274464    0.4528216375975102
    0.3828471679401667    0.3744429828332264    0.4409500045190562
    0.4849157919628511    0.4934993761727826    0.4291750865657930
    0.4601987011413239    0.6413143422577129    0.3968131539337977
    0.6400644333104654    0.5077170714265380    0.4458682190820045
    0.3776421788125330    0.4650522056673304    0.4051629105775322
    0.5456983286209914    0.4014199589751961    0.4157918883232835
    0.4093075872685237    0.5589346577351431    0.3923658947312342
    0.5545455725179835    0.6354720328999592    0.3840448968195556
    0.4547572855787688    0.4061234031709952    0.3860046927058807
    0.5915050915623077    0.5455678057326371    0.3734822766537387
    0.6202359270512322    0.4512891193791009    0.3724146177923361
    0.4984573500493840    0.5625366970769696    0.3517097388320458
    0.5314292066117653    0.4688158464965407    0.3469812673089571
    0.4386029101602793    0.4872888910022416    0.3361454694006742
