Au39 rank 4
1.0
   28.5099036543550568    0.0000000000000000    0.0000000000000000
    0.0000000000000000   29.8997813752838653    0.0000000000000000
    0.0000000000000000    0.0000000000000000   29.2185369955079466
  Au
  39
Direct
    0.6496254463736181    0.4656038131982212    0.6483232432240783
    0.5643735928945327    0.5131068674044764    0.6383684403135842
    0.4821833102057350    0.4703988646460822    0.6182589040509788
    0.6471367705283412    0.5581597611122895    0.6570225598853892
    0.5871036311188845    0.5956275556315935    0.5947726690479717
    0.5683038785045214    0.4195639205597743    0.6251010091247915
    0.4877297301921452    0.3776885376126846    0.5991488853632196
    0.4974683246898136    0.5573474495753998    0.5860681069991985
    0.4050055685047230    0.4229947632161703    0.5878492946421316
    0.5538689058508026    0.4811401138434774    0.5438211010012066
    0.4148804192397025    0.5134464315791554    0.5629403824814652
    0.5687416016018441    0.3657877291920173    0.5461016140932746
    0.5275759967594127    0.6319132573901992    0.5329890596066914
    0.6417848176366552    0.4270042491309783    0.5620609556131744
    0.4815754466282233    0.3341189190600056    0.5165814139647666
    0.4402762458119495    0.5918509597173207    0.5182305056771553
    0.3974891840307051    0.3751987849554750    0.5035632583436500
    0.4719018039697869    0.4354772930263771    0.5179191200033164
    0.3508770196389602    0.4557954587507651    0.5172887358186032
    0.4914155097589201    0.5179562942809616    0.4783479171214000
    0.6441213274388550    0.5211354733975866    0.5700519224554137
    0.4658061351377221    0.6673350655293574    0.4686540360332679
    0.6309860281857871    0.3919786824487280    0.4766535875932649
    0.3878485749596814    0.5274329298570795    0.4725603641466820
    0.5535934448961232    0.3414033664707349    0.4549445916306262
    0.6392286814922338    0.4861149998947358    0.4837294377097275
    0.4641606573254088    0.3749096616468768    0.4309954184925001
    0.5285659308627577    0.6009034311934066    0.4426101794195225
    0.3947452895108039    0.4395066414602649    0.4335904583303484
    0.4312202521233579    0.5952939303838702    0.4212635551471309
    0.5435919694866850    0.4422886988915808    0.4568367292833845
    0.5939401893674998    0.5669188160656528    0.5033018386552193
    0.6237645774700142    0.4449053196588479    0.4004098637613446
    0.5864048917156723    0.5306512873743021    0.4160128116138193
    0.4038816059570750    0.5155982255983831    0.3810860828026872
    0.5454994467762340    0.3900515719158085    0.3766342295420252
    0.4967506028441712    0.5384110088635725    0.3793104980946999
    0.4673275932355317    0.4467926475914611    0.3714332131645387
    0.5552127095284460    0.4762618720570652    0.3422126664257610
