Au39 rank 18
1.0
   29.7212452890344139    0.0000000000000000    0.0000000000000000
    0.0000000000000000   29.1767100320923589    0.0000000000000000
    0.0000000000000000    0.0000000000000000   28.9949392668557024
  Au
  39
Direct
    0.5561674329672517    0.5268510442584916    0.6504360639242553
    0.5629078853697340    0.4330903328116864    0.6441642318168628
    0.4802838715429286    0.4713308628621803    0.6274334616097083
    0.6013085095786171    0.5827016657687295    0.5855437948928215
    0.5489587583353381    0.6210370925488208    0.6560936602141408
    0.4759165935871775    0.5695285572347474    0.6237995774096616
    0.4090132137816924    0.5177221850063671    0.5879097838112228
    0.6177793179523786    0.4887359016230788    0.5897108091588381
    0.5044695064909103    0.3875179669409123    0.5853666982566683
    0.4203531754807559    0.4229529074154824    0.5709560759610378
    0.5228799395135494    0.6301577109955300    0.5648118782134239
    0.3381649991438078    0.4640973584971628    0.5566382644398720
    0.6012098910400745    0.3964743327451325    0.5659769383441320
    0.5233724643515368    0.5229628783019095    0.5516763792055698
    0.4463169292824326    0.5864006961049384    0.5315503509457363
    0.4622249730969834    0.4877177763103367    0.4841332129563355
    0.3776629856077354    0.5300534571897063    0.4987910873207889
    0.6637144323349958    0.4494028751398333    0.5178214922877781
    0.6347801678458566    0.5386209409641773    0.5093557717717171
    0.5457916361552355    0.3410199060772732    0.5119231726647917
    0.5931477315131459    0.6236184340600808    0.5003807256397792
    0.5372947168309344    0.4397155648136808    0.5078865454211718
    0.4611870910206426    0.3786998177107060    0.4974944359637312
    0.3829080944278158    0.4298720615797473    0.4812141952412960
    0.5038990368753506    0.6314834601664869    0.4719383860287554
    0.5469320878634771    0.5197024095391262    0.4601613336094733
    0.6115662160857828    0.3911901578586927    0.4658492895175185
    0.4389833257546104    0.5729240463261223    0.4369796252146632
    0.6345781426389268    0.4816854095591126    0.4332753873916202
    0.5761575132198306    0.6591762061128635    0.4136958383202856
    0.6145072322800671    0.5729126241640875    0.4196411489781726
    0.5269216149079147    0.3746219982192867    0.4249676530852106
    0.3896534011698279    0.4945682367701950    0.4103779553390183
    0.4454113971505498    0.4173783111499981    0.4108587945606564
    0.5228994240843752    0.5859191291641211    0.3902624424253123
    0.4759934294100225    0.5067920024930963    0.3781285922917056
    0.5998790126265460    0.4156216650913163    0.3752095673804013
    0.5685612355082242    0.5038679005116637    0.3649791018434607
    0.5122391277384964    0.4263188548847840    0.3466585384620449
