Au39 rank 5
1.0
   30.4836505105332805    0.0000000000000000    0.0000000000000000
    0.0000000000000000   28.3368217993613172    0.0000000000000000
    0.0000000000000000    0.0000000000000000   28.9236396661915620
  Au
  39
Direct
    0.4845098169672433    0.5854717164667855    0.6563124712280209
    0.4584480062052013    0.4983461044761248    0.6206667294728728
    0.5453385763587018    0.5367146412847883    0.6040136873989864
    0.5267867992449886    0.4434306391231417    0.5831124623496842
    0.4383716707427747    0.4192521123827381    0.5680874625138639
    0.4216340688963150    0.5848608166100154    0.5878859380348362
    0.5049724493852483    0.3572597676456760    0.5449273658766778
    0.3877467504047466    0.4994324019833442    0.5576555633245550
    0.5078911731239150    0.6191324997030364    0.5684306643694443
    0.6028276576920480    0.4880094003045522    0.5496954293843473
    0.4339591843028438    0.3560917778312601    0.4897108920803124
    0.5817695622522453    0.3974685526779836    0.5187752515581333
    0.5714079904546679    0.5740025311024490    0.5163400700046857
    0.3661754922364439    0.4181910126490263    0.5075983814090322
    0.3820627496982040    0.5809277943590039    0.5025439442041950
    0.4796690269449658    0.5278610036192145    0.5285243688594644
    0.4716849934610677    0.5462596942929462    0.4353382349556172
    0.4358804506052244    0.6568554610632936    0.5225435541203391
    0.3635163140978517    0.3538253341943597    0.4318619291395119
    0.5159714342622460    0.3806341807012990    0.4517900158687699
    0.6270918534947842    0.5217063588897677    0.4605863775509129
    0.6601233562517808    0.4371657802423445    0.4935970828940393
    0.5109970051582663    0.6348782748551540    0.4742062827517082
    0.3319317203635242    0.5046566951165720    0.4828361468158417
    0.4491471962141843    0.4581707731093091    0.4702159556827161
    0.5383243567992874    0.4842671167758557    0.4679959649112378
    0.5653956546493812    0.5778846149808489    0.4201233642181162
    0.6725791844603204    0.4615586580778476    0.4014165302560052
    0.4408594800071549    0.3916422417857603    0.3958681507940205
    0.3663403903309457    0.4488627410106036    0.4128925672596553
    0.4221647103698607    0.6307533994037916    0.4310694368448516
    0.5954813864699641    0.4154525495520693    0.4241649098561323
    0.5926604584695585    0.4973375437367024    0.3712058579210502
    0.5005171539718980    0.6297136061011268    0.3794092023880429
    0.5166822446727498    0.4416218718785793    0.3765637661739500
    0.3765838336458710    0.5463274559899174    0.4109699716782580
    0.4357524745864110    0.4839976105756024    0.3609827360879713
    0.5137779394578773    0.5358044797923323    0.3458736789401775
    0.4308359766049875    0.5799776879555731    0.3438500253306719
