Au39 rank 12
1.0
   28.4325946000406020    0.0000000000000000    0.0000000000000000
    0.0000000000000000   28.6405003517602879    0.0000000000000000
    0.0000000000000000    0.0000000000000000   29.1370972391201875
  Au
  39
Direct
    0.3808626603698480    0.5294469331641658    0.6043656370320998
    0.4618063434462403    0.5686443615723237    0.6449268995942206
    0.5340002490375205    0.5018092991950668    0.6581455156394509
    0.5546717711135645    0.5951549956940116    0.6567951686112917
    0.3500651364620369    0.4458417495380399    0.6403252692905128
    0.5157172364944920    0.4134615979115312    0.6246552032331678
    0.6060325323761041    0.4439718448955498    0.6303989558407505
    0.6165435851478854    0.5372471217551200    0.6125455907018987
    0.4969979270856776    0.6507357804714550    0.6046323524951595
    0.4423592856680728    0.4709203590780304    0.6572697867169859
    0.4221674893525302    0.3926159051234279    0.6024071153413363
    0.4717860657935441    0.5047656860911574    0.5707539305953516
    0.5795797027716297    0.6158632940356417    0.5649273496400736
    0.4227190022624949    0.6062901871917648    0.5635949179582186
    0.3687173361363565    0.4530580444036036    0.5459480563338370
    0.5850882511490174    0.3888115794386931    0.5576770035259793
    0.6470953251023026    0.4655206348684131    0.5464384701589388
    0.4956136347848780    0.3505749302381193    0.5564509300199291
    0.5599179256616212    0.5128674848723246    0.5343722115820667
    0.5009944276380394    0.6361990370286250    0.5123765395359355
    0.6482391171224096    0.5606812315587129    0.5251839057198333
    0.5024257771992466    0.4406624208946711    0.5076256254491256
    0.3831294834770028    0.5399193787839901    0.5079052107866284
    0.4195677493412668    0.3806306805729396    0.5073595513691319
    0.4836179629649859    0.5333835117935523    0.4794937618919418
    0.6288951484443736    0.4079851619472795    0.4731752628301274
    0.5761774188784369    0.5904721943413838    0.4697441024569312
    0.4118946771244532    0.6264904175055112    0.4710813046524217
    0.5458979823564678    0.3578869254932028    0.4751101863726939
    0.4049258238286974    0.4607664187653965    0.4571832931006530
    0.6203792865508206    0.5022967289699917    0.4541951792681554
    0.4696353008786534    0.3923394081566353    0.4266536606272325
    0.4966758646758652    0.6135390286515201    0.4207917892360302
    0.4082543691726684    0.5468122587677122    0.4146230392112310
    0.5574905393300832    0.4375997265637174    0.4155299511344245
    0.5511360212704999    0.5336319229166010    0.3961288070423091
    0.4721033022813292    0.4782208093968624    0.3875676528735190
    0.4133098633937199    0.6347411504956649    0.3762821771693602
    0.4742659908299232    0.5637694505746108    0.3428252831175604
