Au39 rank 8
1.0
   30.2875010273840246    0.0000000000000000    0.0000000000000000
    0.0000000000000000   29.1538961321175449    0.0000000000000000
    0.0000000000000000    0.0000000000000000   29.4715470174299412
  Au
  39
Direct
    0.4537804880210642    0.4405846455105506    0.6585830494644727
    0.4330169546046834    0.5331168090968665    0.6492572216992657
    0.5220084373888978    0.5021665487151089    0.6482089247683289
    0.5008872412904243    0.5950463782372166    0.6474055725675844
    0.4159471761126809    0.6216673108955945    0.6153910277998337
    0.3736665670673988    0.4660575544885072    0.6230735084886052
    0.5621269612001918    0.6582276564917360    0.6179901751468166
    0.5851730335621136    0.5660594157336627    0.6207928876382582
    0.5318288011701602    0.4121829529550072    0.6180092413486590
    0.6020047529251137    0.4732991382820064    0.6121320509834206
    0.3704046687804263    0.5506996393879540    0.5777719622346279
    0.4518813433806844    0.3657630827550555    0.6008135485756858
    0.5358772687789969    0.4785297684686177    0.5386796366630056
    0.4889500638590575    0.6476289750372107    0.5629536118568536
    0.3769049589590673    0.3953238457091283    0.5583651691436746
    0.3311777860016353    0.4746317668307277    0.5394630903472577
    0.6699901439192726    0.4529798658554675    0.5493342636831157
    0.4489184926624506    0.4596622104658050    0.5614643935493868
    0.5968984718774352    0.3978467199800020    0.5518659375664952
    0.4152866815360700    0.6111100630501922    0.5194357834553003
    0.6220562035723283    0.5325509266929608    0.5390511371528987
    0.5683871463683419    0.6078433923247372    0.5369713761285473
    0.5247876804431297    0.3421597724441243    0.5517084853902051
    0.4796487486331019    0.5497135136493464    0.5639885123207031
    0.3712707599921014    0.5356084358278985    0.4835103771508147
    0.4525628612436483    0.3746735858735740    0.5042369772251232
    0.3905858715614501    0.4402820110875014    0.4762494475730337
    0.4676413048693980    0.5067968128236728    0.4809120873006312
    0.4978376175860129    0.6083303702219567    0.4770333094777923
    0.6096631764734352    0.4591882458121513    0.4778247463240751
    0.5665717428836121    0.5460772351770090    0.4658484069601256
    0.5384221923639305    0.3965073487873008    0.4760998542938356
    0.5445180533361650    0.4687710189024453    0.4151222032330126
    0.4644344340923541    0.4211872582472895    0.4239120247015566
    0.4210834859338755    0.5918351161571064    0.4270775414922889
    0.5026854102045574    0.5535068084601568    0.4002391873394149
    0.4081286821860334    0.4972667989754201    0.4047468105017410
    0.4806752418186122    0.4758250623464327    0.3486236057448777
    0.4328287049906576    0.5587403956381787    0.3394866960890558
