Au39 rank 17
1.0
   29.9708418383071518    0.0000000000000000    0.0000000000000000
    0.0000000000000000   29.5575192736775918    0.0000000000000000
    0.0000000000000000    0.0000000000000000   30.2071040315525181
  Au
  39
Direct
    0.5082672199701407    0.5251480932415651    0.6687657904135591
    0.5884882272021944    0.4998702397708994    0.6320641466416296
    0.5643236200313322    0.5905654432525685    0.6365086918496899
    0.4706149697934069    0.5955747862052605    0.6250711403457276
    0.5105460739990410    0.4504618278054338    0.6135625981633248
    0.4378223468741547    0.5063540520364384    0.6123571896310955
    0.6478698586634792    0.5676081146177367    0.6100308954366718
    0.5951188511235416    0.4181224920709747    0.5917679876563176
    0.3886914272438681    0.5810971515448344    0.5874842378366387
    0.5259224832389522    0.6606164630841328    0.5895554332337390
    0.5171231800460838    0.3821022418649109    0.5534782004502781
    0.4407283017701378    0.4327208747386614    0.5553649111772431
    0.6456714194954459    0.4884798795405560    0.5597218183920398
    0.5979017807152310    0.3385487988803837    0.5444419917978668
    0.5986815115344897    0.6208681670765894    0.5533409212611622
    0.3833184010666614    0.5035034068281590    0.5387912719435186
    0.4470060800171006    0.6399658396471910    0.5474726732606791
    0.6677645831164581    0.5696245548363773    0.5205942539435646
    0.6236742920567990    0.4179427193045782    0.5036957912159883
    0.3880435303904625    0.5877436029163523    0.4967632026009102
    0.5275531410165186    0.6420032221084158    0.4995104995891288
    0.3839624380447725    0.4301047366171061    0.4838692900250907
    0.4642932568935261    0.3859415443405593    0.4786852149643113
    0.5538374536240418    0.3649203125981385    0.4694366593393723
    0.6334379554001909    0.5023989916439131    0.4683552619529359
    0.5946826380890652    0.5871143702133985    0.4668891352709327
    0.3568390930095636    0.5151873206988883    0.4511677487889381
    0.4467929935672670    0.6473679316660089    0.4575233501640766
    0.5905731765100078    0.4358482865687337    0.4210225162761768
    0.3326235217995467    0.4368976976186557    0.4083553446343982
    0.5130689124046266    0.5925267608036465    0.4233250776875402
    0.4232294303067269    0.5702164819484269    0.4139958631232413
    0.5728303356245400    0.5254479513348885    0.4031805086789406
    0.4169852596756983    0.4016088172761246    0.4016321599221686
    0.4620994289338641    0.4393583343304857    0.3308680168590017
    0.5087776832972979    0.3979465079722032    0.3991632111701865
    0.3991679977319513    0.4909320969833665    0.3722649665009038
    0.5508017661221281    0.4587318420607171    0.3422197811388931
    0.4867544434302863    0.5215464319101868    0.3689859902561708
