Au39 rank 1
1.0
   30.3107034504194104    0.0000000000000000    0.0000000000000000
    0.0000000000000000   27.4062060507474072    0.0000000000000000
    0.0000000000000000    0.0000000000000000   30.4819468367981372
  Au
  39
Direct
    0.4467531877841586    0.6044659883421029    0.5991772553733985
    0.5235513813108686    0.4910047751327306    0.6597541960806091
    0.4280496923536484    0.5192063469100161    0.6470979291385018
    0.4930337087374343    0.5831128305636993    0.6736911769446597
    0.4590255475639638    0.4233423428863446    0.6469286442937559
    0.5344166805295313    0.4232109456366716    0.5936318162104594
    0.5826022753041564    0.5688787161485621    0.6649073190656840
    0.5891948203133256    0.5039019054467366    0.5957829358623764
    0.3769180476938970    0.5434743565607145    0.5729566144319037
    0.3865552614623766    0.4455137100333563    0.5962357750788079
    0.4526646048565400    0.3789155769647629    0.5663600569165890
    0.3993038826103330    0.6263807733423092    0.5263508242332352
    0.5376659030626803    0.6172410297581643    0.5988612759586518
    0.6300211482191477    0.5975234759750715    0.5939294320549640
    0.4896376786484041    0.6359447033647766    0.5232368786361279
    0.3308552167334792    0.4721657702700944    0.5279892868049986
    0.5293792719994347    0.3671290880073222    0.5197294648515917
    0.4609747913453385    0.4954783045511900    0.4771999494685895
    0.4659384588820407    0.4932845760087496    0.5661014895160307
    0.6278581876439621    0.5365015483113121    0.5183501894358712
    0.5826462767746674    0.4485076458925335    0.5191891336566685
    0.3730307418102310    0.3837715810057502    0.5242402070920571
    0.6728964400509262    0.6252019467074225    0.5195140785756267
    0.5810021645979896    0.6306186666469754    0.5199987851031409
    0.5304679803005197    0.5389321898846552    0.5192931917676723
    0.4506915679853324    0.3838696701247988    0.4758449500710287
    0.3713759309495984    0.5453186543630172    0.4812368350679888
    0.5311679178954533    0.4240267657606315    0.4464391229525534
    0.4423624532316044    0.6019577417192410    0.4508975392445258
    0.3799628692416758    0.4471773161292600    0.4540514061786266
    0.6264162072230002    0.5993946746597941    0.4448731591613008
    0.5867956862575866    0.5038447209325578    0.4424017790585380
    0.5324328611080723    0.6134380067523554    0.4444640857371379
    0.4521216533018564    0.4335494380766995    0.3977256418776551
    0.4074242988607474    0.5241070471621361    0.4004869236095051
    0.5301434591730573    0.4832322756833299    0.3739892995817347
    0.5770664906137528    0.5708428916775584    0.3753227838815089
    0.4852980136489520    0.5729065955131999    0.3761667672642345
    0.4530587273346738    0.4951933776065079    0.3263773054129388
