Au39 rank 10
1.0
   30.2779330688855275    0.0000000000000000    0.0000000000000000
    0.0000000000000000   28.2509986821373253    0.0000000000000000
    0.0000000000000000    0.0000000000000000   29.8570179317381950
  Au
  39
Direct
    0.5121182549905166    0.4964859621083109    0.6685176783302865
    0.5629976758292101    0.5509640563928363    0.6125327516896150
    0.5681216266532610    0.4510673685677238    0.6076829246328789
    0.4749594683270897    0.4458478735462453    0.5993324389803106
    0.4714590119421735    0.5454222464242509    0.5967480298375392
    0.4078523836437159    0.4944782287547104    0.5520981366825425
    0.6253314877833548    0.5072686397283948    0.5535834231077721
    0.6123315509388635    0.6034041382095536    0.5550607874740030
    0.5211958189896255    0.6067613664497432    0.5452926790720356
    0.5262460353984656    0.3911462978412723    0.5414000425768091
    0.6171587671091903    0.4099923725966742    0.5422298703174109
    0.5322444273204401    0.4959054515574300    0.5294162754655301
    0.4374654084314945    0.4065319696512360    0.5248686458906550
    0.4415605811636328    0.5748229618554441    0.5120406457109247
    0.3506656462597917    0.4377197979922769    0.5046583810702340
    0.6685662798932078    0.3722515797884134    0.4744465028201161
    0.5785105885506006    0.3600068335736205    0.4716794025204415
    0.6553279097527426    0.4683924334075224    0.4738702982462066
    0.4889988565778677    0.6405644885949715    0.4636924203472268
    0.6373124747382999    0.5622242478026225    0.4752567509270909
    0.5794122316220534    0.6411235530973499    0.4773184049972519
    0.3815623691985546    0.5209133200289869    0.4645581973992007
    0.5574913635184267    0.4573166872291593    0.4464283509995835
    0.4901680509954817    0.3742656780205545    0.4557488062484127
    0.4708700416556076    0.4861803295349409    0.4611490876965008
    0.5401652504743633    0.5523513189648457    0.4535465481101218
    0.4087019464996397    0.4122557000524789    0.4359536394777222
    0.4415712465250262    0.5733926390536590    0.4162248018827922
    0.6292118528059016    0.4127886091479461    0.3995554464345766
    0.6267175253912264    0.5114164297484968    0.3951602226916540
    0.6077230032251019    0.6077738160555142    0.3964555240244423
    0.5175245678091693    0.6118157325128095    0.3796890278506901
    0.5491007404863963    0.3687273333631051    0.3841931370935591
    0.5614890133050755    0.4586660886810658    0.3479918642308523
    0.3303758642685478    0.4578585779646131    0.4150556947117466
    0.4060628246628258    0.4912994481849738    0.3758069414169298
    0.4881746217799799    0.5218601565515102    0.3500354618845946
    0.5720853407615257    0.5522970910365389    0.3302498044012468
    0.4778421900405910    0.4289496440813853    0.3768616515769789
