Au39 rank 13
1.0
   30.0785759522285616    0.0000000000000000    0.0000000000000000
    0.0000000000000000   29.3890162215127759    0.0000000000000000
    0.0000000000000000    0.0000000000000000   28.0543148800309297
  Au
  39
Direct
    0.4725487744156481    0.5277207503787710    0.6325102896600501
    0.3893281157991063    0.5655734918022703    0.6156821045589310
    0.4741559183263316    0.4353696730255379    0.6409381616521541
    0.4651073690417812    0.6133730873166704    0.5923530980973389
    0.5499749057032534    0.5765972797855761    0.6116024607542911
    0.5497278502608144    0.4807688644814278    0.6108000979328770
    0.5388675595797323    0.6605479279908900    0.5647150006875182
    0.4025297900814940    0.4740724297905298    0.5958416729315850
    0.5287019902189700    0.3930719167565097    0.5761744347383548
    0.6217507024482796    0.5268713566884369    0.5756010188909867
    0.6115293318558096    0.4344033844761457    0.5592470116742745
    0.3521804410684231    0.5245370769569424    0.5365203574462606
    0.4376492289172364    0.3923580411769356    0.5625293403487351
    0.6219058792155765    0.6239381392069200    0.5715716592381133
    0.5058283379908818    0.5361612679151810    0.5327335326574908
    0.6581803648283699    0.5737131994073261    0.5002438375180701
    0.3634456758354353    0.4324654357059445    0.5137614411356353
    0.5305188552472403    0.4539965417946954    0.4957851086882287
    0.3945392261024347    0.6137240534362028    0.5302968085491407
    0.3985816002595683    0.3500159610644494    0.4870277470411568
    0.4918737721548033    0.3436409912455836    0.5004542510265113
    0.4429433036704098    0.4789127165440852    0.4982206935072991
    0.6693689814499484    0.3888511861975371    0.5001812769293572
    0.5819421250195183    0.3600375354425693    0.5019359038559069
    0.6685117057569351    0.4827750262171899    0.4979671094721263
    0.5701898005466115    0.6054849536393970    0.4900379847030786
    0.3312685190186900    0.5852194384497645    0.4670751914829266
    0.6088901695441702    0.4330560292672153    0.4419105924862810
    0.5968926821681370    0.5263336809520291    0.4464857759050610
    0.3630904193156470    0.5009621069345150    0.4402123405068463
    0.4802621093622521    0.6272836138891130    0.4948583453297832
    0.4001960371043420    0.4192458530655108    0.4209145140822786
    0.5353901305670371    0.3808476122654874    0.4198719726460708
    0.4533597258720013    0.3415727946155548    0.4103942847889346
    0.4216224661233041    0.5761332477291337    0.4435197836763406
    0.5113151770523653    0.5601032216253298    0.4297767972298193
    0.5373394642757874    0.4747466359420335    0.3951497369267266
    0.4484243512567254    0.4994460541564621    0.3954662051100220
    0.4733922671666082    0.4178411250171865    0.3578826957143330
