Au39 rank 15
1.0
   28.7052169770721619    0.0000000000000000    0.0000000000000000
    0.0000000000000000   29.1774813559368411    0.0000000000000000
    0.0000000000000000    0.0000000000000000   28.0460465845418625
  Au
  39
Direct
    0.5094104500322207    0.4787219756672967    0.6444535743389528
    0.4316886702854065    0.4293410945321082    0.6188264974870488
    0.5138414509803536    0.3825923218791476    0.6280798896050063
    0.5871631212665597    0.4369466820764471    0.6055376028330935
    0.4766159867902983    0.5611200735977980    0.6088153935155308
    0.3923050820300262    0.5117653358960372    0.5904676342180187
    0.5682261214148535    0.5348802218410164    0.5917912366990558
    0.5571997581597787    0.3623745185970743    0.5437240017923568
    0.4589878419096870    0.3639025407669557    0.5513381707988260
    0.4249882166510811    0.5808720984848400    0.5284154734285953
    0.6500553558368093    0.4944968017484706    0.5613115300932953
    0.6403739777881322    0.4056967764684460    0.5289850350079327
    0.3847107253444650    0.4284670575159149    0.5356716016859711
    0.5236789554208215    0.5957632031668875    0.5303424328889125
    0.4733736511563214    0.4890817685398652    0.5425534501296231
    0.3638759544581585    0.5140973253721023    0.4953504365314179
    0.6114149742578194    0.5600167462629537    0.5047992347081062
    0.5603744313509352    0.4716440910622763    0.5078727701460526
    0.5046005292176380    0.3422527499522718    0.4635950719983283
    0.6465190833493292    0.4751935127531550    0.4609811474099362
    0.4809429999928636    0.4367191326718274    0.4639045508929827
    0.4697836876813690    0.6273834121664896    0.4552839907474605
    0.5640398903485379    0.6135217637004073    0.4419456041674225
    0.5009304476041299    0.5306864517600020    0.4537407251711401
    0.4113086800622099    0.3633887692377659    0.4674993272780762
    0.3486143789639782    0.4326263245146973    0.4454301346364469
    0.3822250016733081    0.5890103434418827    0.4381026529538715
    0.5873131416421709    0.3923229150293996    0.4495747567208635
    0.6311037557030575    0.5513085188129776    0.4070949142617850
    0.3967170183230637    0.5013445306562969    0.4018222606645333
    0.5190596173523442    0.3949927258958642    0.3803988055229992
    0.5796731833195062    0.4686123682835372    0.3893754385649309
    0.4184119872500950    0.6585608453078287    0.3777765036678875
    0.4243527565280220    0.4118287230806223    0.3838020367881580
    0.5120014218595299    0.6460698958532957    0.3628030620985866
    0.6053208011883097    0.6292326289216242    0.3539533555332846
    0.4520147251364412    0.5705432964110155    0.3694586232756925
    0.5469496231990888    0.5535109500336850    0.3586191194026283
    0.4854453246821008    0.4820186518940457    0.3618341826983176
