Au39 rank 3
1.0
   30.3820243087758186    0.0000000000000000    0.0000000000000000
    0.0000000000000000   27.7043617599846996    0.0000000000000000
    0.0000000000000000    0.0000000000000000   27.5653192348850169
  Au
  39
Direct
    0.5143073226030603    0.5708527445084809    0.6370894608156379
    0.6002130034026536    0.6015593734446445    0.6371445744537820
    0.5811880258271181    0.5058511913100902    0.6138473191108738
    0.4941666614855001    0.4764060420962034    0.6060356048248025
    0.4298665827818501    0.5464245412666799    0.6170226007345251
    0.4083328593810483    0.4570518872829510    0.5802281771853444
    0.3707068161356838    0.6215824151957947    0.6175124854617562
    0.5608353166696074    0.4193467993977312    0.5695534018683267
    0.4599668140413159    0.6389708172496833    0.5922387406570681
    0.6196110165465851    0.5721546914916217    0.5449309239466656
    0.6361979330484454    0.4723069196636705    0.5388205483974345
    0.3294664691420563    0.4501326569021429    0.5289969923282771
    0.5465867401632012    0.6326224663864020    0.5625265343605089
    0.4746767360406357    0.3936647406185213    0.5529334211353755
    0.3458841576363863    0.5350691420080386    0.5758042060628112
    0.6247762422075694    0.3768581307730858    0.5117695864799972
    0.4602032534907631    0.5243792078636086    0.5138971364706668
    0.3995836299662843    0.6023021699019339    0.5248300356996740
    0.4831250047697546    0.6313507877275922    0.4931193211908302
    0.3878735369099803    0.3746804045573137    0.5291130324838064
    0.5495207743065881    0.5101545350161196    0.5127843661532830
    0.4979329228971997    0.4560668953514105    0.4557075870025892
    0.3668197176847477    0.5218460332894607    0.4763891134740146
    0.5386664575793289    0.3641913210795300    0.4883841583699022
    0.4266618002659783    0.5798014865679787    0.4308230671637807
    0.6314383918884171    0.5308140046351922    0.4555374435327452
    0.4490751373451841    0.3647835621631086    0.4576696382265217
    0.6697239598672449    0.4392431143548145    0.4520743758030920
    0.5682730360988827    0.6037346522901118    0.4674183352170275
    0.3899424317544604    0.5025004421302340    0.3817258982984230
    0.5995422822949440    0.3856245146953976    0.4128284872107421
    0.5159917779841842    0.3600589248128572    0.3915360675257974
    0.3772361085140492    0.4252878194183822    0.4427953082063114
    0.5048125665007309    0.6143419671606765    0.3978921276639499
    0.6272221021011758    0.4723998512844218    0.3730662559519339
    0.4781020839455462    0.5222841421543502    0.3697130841842909
    0.4475827683957750    0.4255956608752297    0.3759866528149124
    0.5400907211834352    0.4500462812144913    0.3610503759920977
    0.5663270450730795    0.5435583843208132    0.3851218402636161
