Au39 rank 14
1.0
   30.4374302767529592    0.0000000000000000    0.0000000000000000
    0.0000000000000000   29.5831527438103805    0.0000000000000000
    0.0000000000000000    0.0000000000000000   28.4433039710030151
  Au
  39
Direct
    0.4490873642584889    0.6444459131323758    0.6470455256102805
    0.5225437013470854    0.5913799063669984    0.6371049056550897
    0.4431744053196882    0.5522308658020504    0.6173827207216399
    0.5194128988268076    0.4996853881509142    0.6127251913323583
    0.4442624227271048    0.4729550890457250    0.5655676764100106
    0.5975707157607207    0.5486138940025108    0.6142487173802088
    0.5938140167397612    0.4642669574667207    0.5732933680994012
    0.5160682877121502    0.4170399866694985    0.5672495137787740
    0.5892459377201825    0.6405520635152014    0.5909460825623774
    0.5032548800194950    0.6608789001603886    0.5707242690816787
    0.6714294513700272    0.6035289498975934    0.6070234076187035
    0.4189085456738347    0.6259050865434819    0.5585903376796001
    0.6696277871538467    0.5229575390952703    0.5591431189794348
    0.5631695327404211    0.5495189296007645    0.5131374906829931
    0.3804216371879710    0.5387255616813500    0.5485567651578630
    0.6392480179112231    0.6048846434293779    0.5162965414807469
    0.6590008483880252    0.4442769890932946    0.5109506001817180
    0.5123628037454213    0.3378024300679727    0.5112655937869068
    0.4737967181345878    0.5570223435807534    0.5173620147399243
    0.3263931796080479    0.5330692811840888    0.4715147471227700
    0.5878440112263364    0.3887940561489873    0.5128693414099080
    0.4698563960140750    0.6473542147928040    0.4794475993586111
    0.3944214393876236    0.5958897934974807    0.4708872144941588
    0.6485553371129021    0.5253279854127787    0.4641160601290879
    0.4508020110134763    0.4035358241046323    0.4985070933213125
    0.5121305617775876    0.4835225289752915    0.4783759694736209
    0.5595560212226798    0.6495989004738946    0.4976213269306169
    0.6013011190404464    0.4472256341992444    0.4365832111596742
    0.5243943031875578    0.3973062161984479    0.4376139145962372
    0.3893600290870257    0.4672744352520184    0.4838163523261557
    0.5998843890717641    0.5968779937424060    0.4283602079171013
    0.3924913891291824    0.5248575986694892    0.4059969888229544
    0.4544504621487250    0.5956565663539050    0.3980645851679004
    0.4481200612383557    0.4489086685138517    0.4121071425110003
    0.6126131419644808    0.5193399130097359    0.3760403466659780
    0.5282926193139279    0.6490965662322591    0.4065862012805624
    0.5333021909397896    0.4710293998544838    0.3785198204350672
    0.4612970130818825    0.5165244169201292    0.3462476931590418
    0.5356570095854062    0.5651407451160962    0.3654209314877830
