Au
 1.0000000000000000
     6.8865380861659231    0.0000000000000000    0.0000000000000000
    -2.0931071764645077    6.6466484242158739    0.0000000000000000
    -1.6328278210089677    0.6267317837649508    7.8650020430498104
 Au 
  30
Cartesian
 -0.4811439830597014  3.9607938725700333  4.0463337390784826
  5.3864018558774758  4.5123820045936887  1.9886043460847871
  2.8992921216641001  3.3135850074049493  5.9441702576950348
 -1.8264289669014593  4.5184373891840597  6.7356135275295461
 -2.4186168187116843  6.6776976639286332  1.4117955200101302
  2.9753973779387670  2.7715765831784074  0.6060221462698107
  2.7634403650958603  5.2939891138041419  7.5955334886670745
  0.6855520605905162  5.7823293828148321  2.9365165418789569
  0.3285015674860188  5.7543287719599041  7.4972003736077140
  5.4054234250849369  2.4268103048015464  0.3614236933243526
 -2.8959524956474585  6.7626332662181818  6.0479290919951740
  0.7826978672404087  3.7023730553092200  1.2801637129983379
 -0.6862070447979591  6.0536013256732533  5.1401141140528193
  1.8146650879828001  5.5487821785803577  5.2501979557411733
  6.6773102861765219  5.9687787501542626  0.5026104239829058
 -0.8185427441999524  2.1930003805694929  7.6801491780463236
  4.0156353728697303  2.6149876669462104  2.8679892710704551
  0.4688431189594517  3.6576432291327561  6.1887477298969129
  4.1101506265026639  4.8150818843079737  4.2751310455314808
 -0.5315417078794987  2.1242996032659693  2.5040378606730544
  1.8582149568362429  3.4701134498579873  3.6828749550903983
  5.1879108788200048  0.3029692154046028  3.6142208834424059
  1.7643728617568413  1.2706171010705225  2.2751482059265427
  2.9706099868730251  1.1874379014597078  4.5503568963226071
 -2.9732859090123060  0.9569469447520929  6.9189123227204865
  0.4877853574380612  1.5717536314077223  4.5613151989859206
 -0.6147725422547770  8.0643223802851658  6.8198795724175456
  2.9034589497232464  4.8975219170076763  2.0006613196084087
  1.9662574665184906  7.1825578412656395  1.3001776321482039
 -1.7948037817179858  2.3824378335682974  5.2704679222579678
Cartesian
  0.0000000000000000  0.0000000000000000  0.0000000000000000
  0.0000000000000000  0.0000000000000000  0.0000000000000000
  0.0000000000000000  0.0000000000000000  0.0000000000000000
  0.0000000000000000  0.0000000000000000  0.0000000000000000
  0.0000000000000000  0.0000000000000000  0.0000000000000000
  0.0000000000000000  0.0000000000000000  0.0000000000000000
  0.0000000000000000  0.0000000000000000  0.0000000000000000
  0.0000000000000000  0.0000000000000000  0.0000000000000000
  0.0000000000000000  0.0000000000000000  0.0000000000000000
  0.0000000000000000  0.0000000000000000  0.0000000000000000
  0.0000000000000000  0.0000000000000000  0.0000000000000000
  0.0000000000000000  0.0000000000000000  0.0000000000000000
  0.0000000000000000  0.0000000000000000  0.0000000000000000
  0.0000000000000000  0.0000000000000000  0.0000000000000000
  0.0000000000000000  0.0000000000000000  0.0000000000000000
  0.0000000000000000  0.0000000000000000  0.0000000000000000
  0.0000000000000000  0.0000000000000000  0.0000000000000000
  0.0000000000000000  0.0000000000000000  0.0000000000000000
  0.0000000000000000  0.0000000000000000  0.0000000000000000
  0.0000000000000000  0.0000000000000000  0.0000000000000000
  0.0000000000000000  0.0000000000000000  0.0000000000000000
  0.0000000000000000  0.0000000000000000  0.0000000000000000
  0.0000000000000000  0.0000000000000000  0.0000000000000000
  0.0000000000000000  0.0000000000000000  0.0000000000000000
  0.0000000000000000  0.0000000000000000  0.0000000000000000
  0.0000000000000000  0.0000000000000000  0.0000000000000000
  0.0000000000000000  0.0000000000000000  0.0000000000000000
  0.0000000000000000  0.0000000000000000  0.0000000000000000
  0.0000000000000000  0.0000000000000000  0.0000000000000000
  0.0000000000000000  0.0000000000000000  0.0000000000000000
