Au
 1.0000000000000000
    29.0462692470000015    0.0000000000000000    0.0000000000000000
     0.0000000000000000   28.0639027980000009    0.0000000000000000
     0.0000000000000000    0.0000000000000000   28.8716001079999991
 Au 
  36
Cartesian
 15.1137800000000002 13.2832500000000007 18.7943500000000014
 19.0307099999999991 15.6749799999999997 18.2301800000000007
 16.2373900000000013 15.7457799999999999 18.2213299999999983
 13.5228599999999997 15.2519799999999996 17.6229200000000006
 17.6815299999999986 13.2814999999999994 17.7236599999999989
 13.1531500000000001 12.4982000000000006 17.0636800000000015
 15.7569599999999994 11.3578299999999999 16.9069199999999995
 12.2222899999999992 17.0895800000000015 16.0710900000000017
 14.8944899999999993 17.4552799999999984 16.5264699999999998
 17.7323400000000007 17.1889299999999992 16.3679500000000004
 11.5503199999999993 14.4545600000000007 15.7917400000000008
 18.8481799999999993 14.7243200000000005 15.6184999999999992
 15.5618800000000004 14.0847700000000007 15.8998500000000007
 11.2791700000000006 11.7345500000000005 15.2300799999999992
 17.9757899999999999 12.1084300000000002 15.2609999999999992
 13.7859099999999994 10.5633599999999994 15.0731099999999998
 13.6199999999999992 13.3064000000000000 14.0981600000000000
 16.4070800000000006  9.9088200000000004 14.6869700000000005
 11.6913999999999998 16.1615700000000011 13.5532599999999999
 13.7472799999999999 18.0686900000000001 14.0052500000000002
 16.3843099999999993 18.5786799999999985 14.5113699999999994
 18.0171700000000001 16.5319000000000003 13.6476600000000001
 10.8395499999999991 13.5659100000000006 13.2048900000000007
 18.3976299999999995 13.8068600000000004 13.0773499999999991
 15.6259899999999998 14.9103499999999993 13.3591099999999994
 12.2972699999999993 11.1094600000000003 12.7185000000000006
 17.7871999999999986 11.1757200000000001 12.6569500000000001
 15.7716300000000000 17.4962499999999999 12.0747199999999992
 11.9817699999999991 14.8640399999999993 11.0231600000000007
 15.0282599999999995 10.9205100000000002 12.5198900000000002
 17.4594200000000015 15.5099999999999998 11.1241400000000006
 13.1139100000000006 17.2541499999999992 11.4759399999999996
 16.3590100000000014 12.9830900000000007 11.1824899999999996
 10.8982600000000005 12.3835599999999992 10.6700400000000002
 14.7444299999999995 15.2086900000000007 10.6064399999999992
 13.6694200000000006 12.6311900000000001 10.8008500000000005
