Au36 rank 14
1.0
   28.0164362793775155    0.0000000000000000    0.0000000000000000
    0.0000000000000000   28.4369293985033593    0.0000000000000000
    0.0000000000000000    0.0000000000000000   27.4445437498899452
  Au
  36
Direct
    0.5544490383475318    0.5216684785038206    0.6515544631352223
    0.4726991264529380    0.4687589433503062    0.6378916006495955
    0.5639183598532108    0.4345551828807473    0.6098158248309218
    0.4822061504581248    0.3775288574862932    0.6092835753683382
    0.4697002346118893    0.5681628217061551    0.6275309811727625
    0.3896672383845654    0.5123203455931788    0.6115031871001111
    0.5612043192453444    0.5983180419704413    0.5923029143827231
    0.6181835017074557    0.5139295606350249    0.5753858334681411
    0.4108205409791056    0.4288035077518708    0.5655294635293687
    0.5601249379512406    0.3534872272262553    0.5528141137976366
    0.4064117019177541    0.5876087389689886    0.5521767552986834
    0.6296249909372293    0.5950859656555415    0.5224494011240333
    0.5194822240035940    0.5117762568315682    0.5505818305675878
    0.4798329377274462    0.6505457952975506    0.5751385537448562
    0.4918795059029496    0.4609845968461092    0.4722293533657365
    0.6163121257568364    0.4290206114025026    0.5255254206830879
    0.3688436742206760    0.5014965090410852    0.5144958381730530
    0.4695447184415573    0.3697344360232889    0.5103165215687476
    0.4810678774982275    0.5544946796123927    0.4731896531857587
    0.5446995948842397    0.6407724157953923    0.4998121121424531
    0.6431488836488373    0.5105091976632390    0.4770432957716723
    0.3921345700952605    0.4174829312510910    0.4682316266143277
    0.5539577785261800    0.3784065823575010    0.4573179709859662
    0.4448660181251980    0.6460893689991016    0.4806109901433994
    0.3756556690848080    0.5807478304372198    0.4579393516136121
    0.5274833646199527    0.5380690121775359    0.3701962827445489
    0.5935196120334791    0.5865020389568760    0.4309186516496174
    0.5083921888640196    0.6281017314261309    0.4051844829273879
    0.6340466684000632    0.4250147280108221    0.4278351809646101
    0.4675762135168914    0.3859942521888304    0.4089608599427746
    0.3709246884451938    0.4958347174502689    0.4120361339219155
    0.4343346963820520    0.5670468318971411    0.3805520915059913
    0.6194957806130230    0.5087557191362725    0.3794498551083811
    0.5467932605401117    0.4426696579089558    0.3815056741971337
    0.4547867395120074    0.4727868440390964    0.3625923500532262
    0.3807547300317083    0.4074249212553069    0.3675879631978951
