Au36 rank 12
1.0
   28.4904260315815208    0.0000000000000000    0.0000000000000000
    0.0000000000000000   28.4484962827380876    0.0000000000000000
    0.0000000000000000    0.0000000000000000   29.7772577726142984
  Au
  36
Direct
    0.5381235848181546    0.4646992136270395    0.6646532475741634
    0.4486414686320455    0.5019817998677509    0.6527826801894380
    0.5263464279612499    0.5595588287321106    0.6475700625267434
    0.4382013498460046    0.5961554327456998    0.6355754601660504
    0.4707997770272944    0.4092730699144803    0.6243726774659760
    0.6059140813667586    0.5062810713693214    0.6119616030367774
    0.3803508031202160    0.4436025438636781    0.6207880909356538
    0.5974323542782339    0.6036430605779677    0.6036270818826515
    0.3750867060005377    0.5366198972984549    0.5952070081810783
    0.5084815214005152    0.6295167893095334    0.5802549997414960
    0.5693673006802253    0.4124747305785986    0.5919387058016332
    0.5127707875302463    0.4931975227431964    0.5733111978155730
    0.4178513003818707    0.6123950282634656    0.5468950199842036
    0.5026748611293425    0.3518417044819100    0.5581369240895041
    0.6214569543346848    0.4629010860029826    0.5303854362116663
    0.4124557786586689    0.3868271693901159    0.5520144654481444
    0.6479352444307341    0.5550646925714509    0.5405605423789117
    0.3536567242643969    0.4643290616120022    0.5337639884008798
    0.5748833151692294    0.6140943508652301    0.5123590190960531
    0.4425933524549986    0.5142122285914345    0.5187798419062232
    0.3503758285626425    0.5576703557988177    0.5070757099554069
    0.4867664341353879    0.6488833027952046    0.4926637806166301
    0.5639145071990529    0.3908445942531586    0.4990436703397080
    0.4701972994801563    0.3759483151753711    0.4748089521841044
    0.6162942371134136    0.4460392282049369    0.4400247207997214
    0.5252825198910825    0.4859263737144310    0.4823206684446087
    0.3791435542964297    0.4041002677376337    0.4673184697890725
    0.5230899772827174    0.5818233124534210    0.4379632952802295
    0.6085267414884135    0.5407406267805940    0.4600716005909822
    0.3836020193148625    0.4971086695209447    0.4426459839123694
    0.5305050715897807    0.4114563585155958    0.4118863397114526
    0.4259466792609817    0.5865355776283370    0.4527974844985634
    0.4368293457316345    0.4282321987474525    0.3988530021849599
    0.5567770388026141    0.5052114499698226    0.3902819346288598
    0.4607575767893769    0.5231302639995140    0.3912070349838197
    0.5005274662480032    0.4567665230569445    0.3324620166920921
