Au36 rank 16
1.0
   27.7060387256675895    0.0000000000000000    0.0000000000000000
    0.0000000000000000   28.5856930693101603    0.0000000000000000
    0.0000000000000000    0.0000000000000000   28.3061985961568112
  Au
  36
Direct
    0.4795826126204868    0.4354739629776846    0.6457942869846467
    0.4373833578897442    0.5210297634601492    0.6231843430669275
    0.5455180434302176    0.5015166811288790    0.6191713689059913
    0.3900877036986223    0.4396280311667395    0.6008070418096272
    0.5041581636298609    0.5884658116463758    0.6307423018174260
    0.5509268893796152    0.4113991947644138    0.5807725475910435
    0.3753524772895357    0.5182709489152251    0.5454090691965309
    0.6133749951876618    0.4829222353304724    0.5504255631641329
    0.4592046305118747    0.3695883482325422    0.5768518257514932
    0.5821288686858976    0.5763268467366943    0.5693426246742965
    0.4294981369501611    0.5991121258915335    0.5650612146092296
    0.3591475525267820    0.3535248106173872    0.5719923816714538
    0.5165932402190233    0.6487117089906971    0.5559538510508346
    0.4715434081301991    0.4703390498072940    0.5421948815640537
    0.5199089849547602    0.3610464825794781    0.5012372119700961
    0.6111996432849189    0.3972978889920388    0.5064240812222957
    0.4172318576886626    0.3507906899692818    0.4910915478452464
    0.3578408785596052    0.4287076520969369    0.5087735556674640
    0.3738823665634528    0.5913649715289596    0.4841293436063468
    0.5648997907633008    0.6185411074254387    0.4778081015089968
    0.6396436214513087    0.5566887104888587    0.4926378158038316
    0.4632971879862883    0.6296635307947143    0.4770080697632890
    0.5362990088573858    0.5218097403328433    0.4908658283883053
    0.4742476957601851    0.4645100209963191    0.4469041002830801
    0.6262398404943247    0.4719141310371630    0.4483112150850250
    0.3701940853245993    0.5029394533363396    0.4481087578902258
    0.4753382053149663    0.3604872841739092    0.4149924188738189
    0.5653674451301660    0.3998894675227521    0.4200208121761771
    0.3923985110910778    0.4124872294428318    0.4179601017943681
    0.4278013088183298    0.5720458008715787    0.4045533822552785
    0.5144344652161288    0.6169309707124432    0.3941269165516640
    0.5892280618761331    0.5555571512193196    0.4076171810580915
    0.4151057596690166    0.4875136717103233    0.3613584812474059
    0.4959623943310221    0.4316072459850888    0.3542953621510688
    0.5859803735308982    0.4733272004885127    0.3590420002200130
    0.5048271369120092    0.5296779866977048    0.3543710986031720
