Au36 rank 20
1.0
   28.3574758318412776    0.0000000000000000    0.0000000000000000
    0.0000000000000000   27.9810188577422991    0.0000000000000000
    0.0000000000000000    0.0000000000000000   27.9088604470737209
  Au
  36
Direct
    0.5045921637142224    0.4064667348549337    0.6278068446021500
    0.5078481657307798    0.5054498891525300    0.6398440523559824
    0.5890354609108560    0.3563624147954056    0.6287022353861995
    0.4221810492916030    0.5553165159858979    0.6316595088442427
    0.5062124888639890    0.6033579180052090    0.6255978287723415
    0.4254612318885059    0.4602583787124474    0.6144796443276805
    0.5895331141521871    0.4561581963437258    0.6166529114328868
    0.5821327399087807    0.5521440896114562    0.5947092459944614
    0.4363845526670188    0.3784800528053870    0.5597935577797599
    0.3542375234108553    0.4388689326637396    0.5529122684734257
    0.5307427409560156    0.3550395501183590    0.5467729569871954
    0.3793947231154141    0.5328096150370013    0.5469023693035727
    0.4400221620585112    0.6101149713875614    0.5509278829722096
    0.6199321396780474    0.3963251374691993    0.5430442740438498
    0.6354168167696453    0.4955375106047243    0.5354317913969429
    0.5389845978053330    0.6252987299192533    0.5372256139067604
    0.6269172641037075    0.5913554209739346    0.5156936268217768
    0.5401384243065854    0.4631404886063126    0.5253989648476528
    0.4480694728321915    0.4626301115909938    0.5022496364865904
    0.5000135361071382    0.5407039129648553    0.4838105302130888
    0.3799111984642062    0.3837387330393485    0.4764876571725189
    0.4737423182812948    0.3631477172425558    0.4671542617004940
    0.3589252799017957    0.4831265788769899    0.4611248995795014
    0.6483801808732221    0.4370383785832810    0.4574282757910927
    0.5678070346840178    0.3829775911479487    0.4582369516646642
    0.4039861220509690    0.5749931125282686    0.4617117436717752
    0.4746850207496145    0.6425446134071496    0.4654951674029365
    0.6242182332724664    0.5296232240050205    0.4391423258524116
    0.5636275500902714    0.6084781371649788    0.4407057612931483
    0.4238387658054358    0.4268286339688596    0.4019400080403929
    0.5816869810352893    0.4553485467416404    0.3885943512871589
    0.4769911106000641    0.5797055900014799    0.3904444923608151
    0.5101875167417201    0.3901033379248799    0.3795454828635261
    0.4025185915004498    0.5190255709049524    0.3811570794228831
    0.5653420029506374    0.5486789650180772    0.3625300528135101
    0.4917002814258302    0.4848783988849610    0.3580158754819223
