Au36 rank 2
1.0
   28.2130441177693001    0.0000000000000000    0.0000000000000000
    0.0000000000000000   29.1333964978838900    0.0000000000000000
    0.0000000000000000    0.0000000000000000   28.7467710261110447
  Au
  36
Direct
    0.5567600266272071    0.4387346840080872    0.6502386963917357
    0.4543529864394251    0.5643418201738315    0.6531112192850966
    0.4652260938242908    0.4707641580705055    0.6508548031100159
    0.5468769410921063    0.5320738680270551    0.6461014500081235
    0.3953156118283701    0.4222725418697632    0.6063000299876394
    0.4868748100055694    0.3902459034325826    0.6054357560445101
    0.3869764607814767    0.5157877157448872    0.6024778303237873
    0.5182267164548617    0.6117463524954392    0.5970749653511936
    0.6166903623329403    0.4857519297166070    0.5926108021891148
    0.6098328328880139    0.5789947146060599    0.5900432416836485
    0.5833668404306577    0.3967126591486394    0.5692124943009562
    0.4204895989747882    0.6017469905074926    0.5704132015770682
    0.4842827797404028    0.5219262816863197    0.5640436725581764
    0.4233846643269136    0.3803567106477059    0.5257178243303284
    0.5140263161318271    0.3428107870279983    0.5273629258920008
    0.3655495299404771    0.4600902765020971    0.5242392797865579
    0.3538835690091336    0.5529018502181337    0.5203147504223805
    0.5050930870309720    0.4438816731445512    0.5202233998168491
    0.4821251041239600    0.6551320250952185    0.5201145827304956
    0.6463488639719208    0.4435855020505104    0.5131478757229712
    0.5662846005012389    0.6092405192733060    0.5105843871510134
    0.6269524848070595    0.5356207904570691    0.5070472828106590
    0.5779920432975693    0.3898591368573497    0.4711000000591324
    0.4256505068176072    0.5949981083765202    0.4722639518158295
    0.5094731408485854    0.5245388460145923    0.4726752786010129
    0.3904004147563958    0.4174867753736965    0.4434650145638700
    0.4802208864929710    0.3798994677715272    0.4445097051673583
    0.3914449216740745    0.5116259186907274    0.4429085181965843
    0.6016863645342156    0.4776605273862089    0.4358755060945559
    0.5096518001309771    0.6296159275461487    0.4326074044941576
    0.5876780357413679    0.5712131454875550    0.4247592275745291
    0.4610640206138736    0.4633650146605107    0.3975334293344672
    0.4598345934807834    0.5582843175156639    0.3899140441447220
    0.5457122852355520    0.4186980735291398    0.3859077682278689
    0.5416612772909695    0.5103057508088915    0.3650016363639757
    0.5371524918800338    0.6025544716260600    0.3449609677567482
