Au36 rank 8
1.0
   29.4848397011999452    0.0000000000000000    0.0000000000000000
    0.0000000000000000   28.4187888263552750    0.0000000000000000
    0.0000000000000000    0.0000000000000000   28.8821868175137766
  Au
  36
Direct
    0.5407063931006534    0.4889376186452128    0.6505793455635619
    0.5327613827496196    0.5773130719325686    0.6063731156580026
    0.6138466672433102    0.5287699574899898    0.6090052943388328
    0.4567107935358478    0.5129701845899890    0.6186541795017797
    0.5883368840904161    0.4366315058764718    0.5855748566429627
    0.4457586888976272    0.6020228392322822    0.5796718580312614
    0.4955656052112106    0.4238524842408767    0.5954212358096764
    0.5174212134206485    0.6305023685018907    0.5235192908432007
    0.5992162372822566    0.5853564591830432    0.5346332846983821
    0.4046957911622996    0.4420233560757691    0.5837942061860613
    0.3957723090069297    0.5277890086732863    0.5415784706749909
    0.5574918899240553    0.4737130594963537    0.4931276107706107
    0.6469336246735424    0.4977234560300284    0.5281061978567486
    0.6304495012009188    0.4040744213949096    0.5070345422149857
    0.4949414153958063    0.5313099107370717    0.5277740620313767
    0.5410044885094083    0.3765199345367649    0.5252916411933725
    0.4472122872961851    0.3892353860760518    0.5189777130670685
    0.3694351061480274    0.4437624955750651    0.4967504301169629
    0.6495228150832850    0.5624889962554566    0.4577398342524810
    0.3801766394053365    0.5261261421345992    0.4461603884395324
    0.4936577530261226    0.3500269932753272    0.4474859778821451
    0.5746765516852465    0.6176497791202599    0.4472435649287597
    0.4272034444170403    0.5999266889630906    0.4860010507325706
    0.4779956470750262    0.4882415571418418    0.4476794166529848
    0.4875711682274536    0.6509953527717720    0.4359995976504538
    0.5754093509331260    0.3908097127513901    0.4313510182699374
    0.4165861114271077    0.3994095998774764    0.4270429014212400
    0.6357830236827796    0.4686084155430649    0.4341153851126655
    0.3389171777985859    0.4498933629458884    0.4036883121510869
    0.5943617494980908    0.5428128959542263    0.3844211804791057
    0.5288445305638984    0.6060284507700406    0.3627969454018864
    0.4468006081494586    0.5723594588179519    0.3955394805649679
    0.4978192230271848    0.4180033211716008    0.3792766833857298
    0.5086674460147144    0.5116867750626649    0.3527440051965387
    0.5823806642266122    0.4517622862777304    0.3566859187254908
    0.4215299091844171    0.4797079110003262    0.3698453952118489
