Au36 rank 17
1.0
   28.0923276614187856    0.0000000000000000    0.0000000000000000
    0.0000000000000000   28.2893426625275097    0.0000000000000000
    0.0000000000000000    0.0000000000000000   28.8719622700166880
  Au
  36
Direct
    0.4502044303398042    0.4785146607704909    0.6483556964233237
    0.4210549043513424    0.5687039443104489    0.6477906723396682
    0.5463722778363415    0.4637935850050333    0.6542433311682533
    0.5217916679220934    0.5575796959645513    0.6481447916305012
    0.4764778221048254    0.6401939277216688    0.6158541442750221
    0.4900154607889097    0.3994675677198777    0.6062168784672309
    0.3921002751372306    0.4160128816009018    0.6033585932524551
    0.5952989817931776    0.5215543382722095    0.5932382759191726
    0.3746922730854210    0.5107448645571848    0.5876887655250945
    0.5812580576186923    0.4216827422455744    0.5760106495463908
    0.5566543394802227    0.6083149793935149    0.5707502662350085
    0.3983069089170186    0.6070911367240756    0.5617451002062640
    0.4743051588524171    0.5356700661678847    0.5631945852009362
    0.5289617045008164    0.3533458945991991    0.5302111927303438
    0.4351310880881292    0.3778809648332939    0.5275562897294969
    0.6433306284608687    0.4736648500141002    0.5245552231655122
    0.3602167783334072    0.4451740693555256    0.5177230541547295
    0.4788428363803510    0.6489376836536386    0.5213712735097272
    0.5415946521240831    0.4969610257126907    0.5077167614436621
    0.6164070868399306    0.5652416073065467    0.5054010877260773
    0.3612813118632088    0.5431944080585848    0.4981350958342066
    0.4496313800445566    0.4858734082429059    0.4862641048824962
    0.5662400805500009    0.6439500199179953    0.4824244595587967
    0.5845143840440895    0.4114439437130358    0.4761511879517677
    0.4009818220480884    0.6266086883063134    0.4680812244739223
    0.4928597994278167    0.3913606789865693    0.4489221167073951
    0.3952920867753266    0.3910893866077685    0.4422758211198609
    0.6197235936741117    0.4951084231091347    0.4349617811348969
    0.3565603399970732    0.4793072460676889    0.4268993122879555
    0.4903931154395495    0.6140882891715888    0.4300087193361000
    0.5829134162451238    0.5820195575072815    0.4125151475312014
    0.4184477913938314    0.5518121466010500    0.4109500924016747
    0.5460168763449873    0.4467073267912892    0.3921034829469011
    0.4480072000314274    0.4585545430690924    0.3920150308336203
    0.5060675913789523    0.5358027049678264    0.3725020750514391
    0.5968895099442439    0.5130745896114262    0.3431133431435312
