Au36 rank 19
1.0
   27.6601536029004862    0.0000000000000000    0.0000000000000000
    0.0000000000000000   28.6290500387075966    0.0000000000000000
    0.0000000000000000    0.0000000000000000   27.1162479622894566
  Au
  36
Direct
    0.4635316575801690    0.3954751921906266    0.6324845039556626
    0.4873196826568431    0.4879535908731965    0.6466813936253096
    0.3940708763904051    0.4656969341667015    0.6141617351465612
    0.5054718240726577    0.3616707374261927    0.5492567845411591
    0.5555710990342396    0.4271718808327761    0.6084022435524256
    0.4712969295551365    0.5742979434839909    0.6076403233676467
    0.5606097004785972    0.5293736771384995    0.5922784500302793
    0.4051746972471531    0.3900459930197956    0.5492651019375302
    0.3804742295617671    0.5518337766657447    0.5697809528955050
    0.5433586681500359    0.4586516413869250    0.5055498564034375
    0.5385842392554955    0.6056188455968506    0.5362094101417803
    0.6325579457291906    0.4709371606817668    0.5607841564292048
    0.4457326171476718    0.3385383072097971    0.4712680126060532
    0.6039326821574130    0.5415326700405876    0.4965435590448725
    0.4592112327848951    0.4967087075154864    0.5419040183392905
    0.6034765030814569    0.3814510359092740    0.5301111809246986
    0.3542493471297271    0.4700956288146683    0.5187985896905429
    0.4372957988495007    0.6164139826073680    0.5218317975210087
    0.5007145822933141    0.6753868856338442    0.4752939690529933
    0.5439755160883184    0.3442353398267520    0.4564754910021062
    0.3798020930204448    0.5554673533562154    0.4680215195047629
    0.4579986125766473    0.4350847825308465    0.4624162560295430
    0.3375503866745700    0.4837365602656444    0.4187960230506336
    0.6404094680897566    0.3580475800482631    0.4383096201405682
    0.3660055974098201    0.3947185689435779    0.4535738779617342
    0.4487495489429568    0.6116343426694960    0.4195124729992820
    0.6358352107023029    0.4537466495470264    0.4593332574180594
    0.4897264803474266    0.5256877932239037    0.4516681252605230
    0.5542518700654254    0.6017516157709935    0.4346707969767624
    0.4812114802866964    0.3735252469587905    0.3823398749503171
    0.5740606130668167    0.4148157902106478    0.3890429978003608
    0.4150659820992780    0.5289292303618696    0.3741805690623028
    0.4055110398505952    0.4328428416624442    0.3674894373036968
    0.5077029969756706    0.5620187267207555    0.3533254644152703
    0.4985840640387687    0.4668420178382681    0.3548129114482672
    0.5808290501223382    0.5115844946646262    0.3996815065522112
