Au
 1.0000000000000000
    27.4998542710000002    0.0000000000000000    0.0000000000000000
     0.0000000000000000   29.1855689180000013    0.0000000000000000
     0.0000000000000000    0.0000000000000000   28.6135014990000016
 Au 
  36
Cartesian
 14.8371499999999994 14.9283300000000008 17.8228499999999990
 14.1743900000000007 12.2742400000000007 17.8847099999999983
 12.1484799999999993 14.0645100000000003 17.4872599999999991
 12.7608200000000007 16.7193100000000001 17.4993000000000016
 16.5158899999999988 12.8803699999999992 16.5866000000000007
 17.2944899999999997 15.5119399999999992 16.6558899999999994
 15.1991800000000001 17.3228399999999993 16.3518499999999989
 10.9032999999999998 15.8949599999999993 15.6588799999999999
 12.1190099999999994 11.5041899999999995 16.2503199999999985
 14.9063400000000001 10.8481799999999993 15.6560799999999993
 10.0487500000000001 13.3034300000000005 15.9275800000000007
 17.8791100000000007 14.1241400000000006 14.3186000000000000
 12.7669499999999996 17.7905100000000012 14.9755500000000001
 17.2443899999999992 11.4618500000000001 14.3538899999999998
 10.1289200000000008 14.4658499999999997 13.4474699999999991
 17.0528799999999983 16.8313899999999990 14.2145299999999999
 15.0430200000000003 14.7766000000000002 14.8773199999999992
 13.4860600000000002 12.8092199999999998 13.9754500000000004
 12.8545599999999993  9.9175400000000007 14.0858500000000006
 15.1343099999999993 18.7863100000000003 14.0288699999999995
 10.7980199999999993 17.1384800000000013 13.1413700000000002
 10.7542799999999996 11.7212300000000003 13.7764799999999994
 13.1104400000000005 15.3395700000000001 13.0460300000000000
 15.1633800000000001 10.7001700000000000 12.7481399999999994
 10.6526499999999995 15.5067400000000006 10.8834800000000005
 16.9252000000000002 12.8005200000000006 11.9925700000000006
 17.6264000000000003 15.4327100000000002 11.9009300000000007
 13.0528899999999997 18.5318299999999994 12.2702500000000008
 15.4385399999999997 17.0835900000000009 11.9032900000000001
 12.6098800000000004 11.2291200000000000 11.6406299999999998
 13.2096099999999996 16.4982100000000003 10.3602200000000000
 10.3928799999999999 12.8099900000000009 11.2815100000000008
 10.9579599999999999 18.2192900000000009 10.5131200000000007
 12.7987300000000008 13.7556200000000004 10.3778400000000008
 14.9139999999999997 12.0115700000000007 10.3321199999999997
 15.3672199999999997 14.7101400000000009 10.5245300000000004
