Au36 rank 1
1.0
   30.0068781833376690    0.0000000000000000    0.0000000000000000
    0.0000000000000000   28.4123718340254783    0.0000000000000000
    0.0000000000000000    0.0000000000000000   28.5711337188967676
  Au
  36
Direct
    0.5280857251731077    0.5460131843157197    0.6494114814212649
    0.5329486051583509    0.4522904614906350    0.6231097414479486
    0.4535415869645890    0.5028193109063072    0.6130553933931930
    0.6033964920774497    0.5139537782804378    0.6064060309832719
    0.4552311644001771    0.4083949494490032    0.5939474171841074
    0.4732211878238897    0.5962937625511234    0.5912838863819859
    0.5651462965531890    0.6038474893026197    0.5813387510622422
    0.6128985922242268    0.4207343238742314    0.5843888820020627
    0.3882518679777863    0.5542156518614532    0.5717413621755951
    0.6508711498786773    0.5787821611571596    0.5572333017814227
    0.5346792228263206    0.3842798120034973    0.5528038178630988
    0.4098327775557172    0.4677785918945425    0.5335697462240536
    0.4190085258066403    0.6314246977368794    0.5198536239467182
    0.3315881694326919    0.6076265274958037    0.5202507392052710
    0.4773909947076330    0.5385422240562975    0.5071622062215387
    0.5095290591879786    0.6399396958566700    0.5124288926855101
    0.6511815185789346    0.4855432005954717    0.5241565025964051
    0.4539857898495763    0.3882867305517851    0.4997365194859448
    0.5681787736228930    0.5314449439748885    0.5045205254689084
    0.5990987357851258    0.6262852178014560    0.4916465925595609
    0.6052853357556778    0.4101086637300866    0.4879924493114892
    0.5182420707069010    0.4591104298699414    0.4741409901628725
    0.3878536389164426    0.5464242300061992    0.4720683197496652
    0.6681610634377246    0.5625913167638888    0.4646897258447356
    0.5369536344397267    0.3515405358225166    0.4633778897969444
    0.4234012846521121    0.4623153842098374    0.4392724187227596
    0.4574044921903980    0.6113792175936715    0.4355515999022597
    0.5403647782505226    0.6481314348487063    0.4212049395344882
    0.6263200537734618    0.4835259865379971    0.4296630051708977
    0.4742249023582601    0.3901978348394594    0.4051529890731996
    0.5995143964293148    0.5767708067586551    0.4044011173965066
    0.5648189645669630    0.4175641642484242    0.3967716926446294
    0.5774064167137195    0.5014690038613707    0.3500776743706954
    0.4909889409735451    0.4756111526207993    0.3669277980178536
    0.5130821304139027    0.5701181200542115    0.3692174118309924
    0.4251764844830319    0.5400537801026782    0.3826940625491907
