Au36 rank 15
1.0
   28.5182358912777687    0.0000000000000000    0.0000000000000000
    0.0000000000000000   28.0993532691269507    0.0000000000000000
    0.0000000000000000    0.0000000000000000   28.2517061933111933
  Au
  36
Direct
    0.4304725374963743    0.5045313080813386    0.6423948199357818
    0.5230492454028867    0.5093187093515874    0.6206450755717686
    0.5665664157115174    0.4262012481537166    0.5959818378488149
    0.5569649815961882    0.5926937590173669    0.5860765712270266
    0.4701493873306741    0.4237956128449041    0.6069568052247719
    0.3678685927303306    0.5525478334747227    0.5874665765386001
    0.3799664200204846    0.4566974432399641    0.5719299479872956
    0.5949601646223914    0.5089805769357745    0.5522544879295651
    0.4614479846679729    0.5857683484327489    0.5973015176204739
    0.4044611081725738    0.6162886736673957    0.5243373631452745
    0.5135144117722489    0.3701531421617211    0.5354587178656435
    0.5913115209428278    0.4242151435091723    0.5022310619180479
    0.4156908655740670    0.3704751024579445    0.5446526128646947
    0.3458246410140544    0.5146301140820314    0.5020063663872942
    0.5876339552520250    0.5884538979424061    0.4948101468807550
    0.4630775065081165    0.4571080142756930    0.5097167229460838
    0.4995264428470117    0.6319620268541575    0.5187360127377990
    0.3723873923666520    0.4233509946902361    0.4745109806054327
    0.5317140555095480    0.5060624632934521    0.4654161725044038
    0.6302509109039340    0.5041190455049537    0.4597984215655965
    0.4446283906480947    0.6355625234799228    0.4348831570221940
    0.4426893514428026    0.5391948791244283    0.4658229747041014
    0.4538205633395194    0.3658836763025806    0.4545035502962993
    0.6015839047622956    0.4257743386413766    0.4040298327488180
    0.3556344558394618    0.5915351092617268    0.4442997156960535
    0.5493576891634836    0.3564297818577034    0.4464433866076553
    0.5402131846448829    0.6442677315168551    0.4316514215924411
    0.3683048196034437    0.4978589619410211    0.4075323058517672
    0.5968665609750895    0.5729677590760622    0.3968503519260744
    0.6514710423905844    0.4987388032507767    0.3632211462740640
    0.4076447524106912    0.4128620186608457    0.3836945439456170
    0.4071402774888183    0.5766171285839258    0.3629201489176871
    0.5043971343580403    0.4139922596946738    0.3830891064983921
    0.5520911627429141    0.4951831072576307    0.3556015353689989
    0.4549692704147471    0.4924665426750448    0.3544505590872171
    0.5017154202544147    0.5766659113439704    0.3743184308914776
