Au36 rank 4
1.0
   29.0712899493366770    0.0000000000000000    0.0000000000000000
    0.0000000000000000   28.2741317723230772    0.0000000000000000
    0.0000000000000000    0.0000000000000000   29.3612226235700753
  Au
  36
Direct
    0.3823561813606146    0.4664369398981013    0.5787919518474912
    0.4728762424062072    0.4872209824042405    0.6111790032094490
    0.5645288568202064    0.5114079257094255    0.5998455895186343
    0.4047613655824029    0.5550073863044168    0.6090273778955407
    0.6543317672217778    0.5381707332759539    0.5740699547446489
    0.4454936438380378    0.3961499697660601    0.5936203169939127
    0.5342391103503158    0.4215275010763265    0.5764749179911347
    0.4941443006758129    0.5819908651177392    0.5956768329840311
    0.5808273350462311    0.5951323569947052    0.5527692530062303
    0.6174631915448208    0.4558018602154963    0.5405501818487969
    0.3949268484462043    0.3908455447311931    0.5147073401385777
    0.4861303499099041    0.3602773840713234    0.5159717700332067
    0.4206089042218109    0.6176846187175524    0.5388367939544398
    0.5076033652259561    0.6512202209866136    0.5307395706571745
    0.3516975012110595    0.5495788941818580    0.5303249026291649
    0.4252266140111198    0.4934290196731473    0.4932067602305965
    0.3289767241740480    0.4597318481756829    0.5011842342591694
    0.5780437693180323    0.3765804887902022    0.5063086700548000
    0.5103513479447398    0.5261090814803893    0.5180546839249243
    0.6146137200906518    0.5352976566221592    0.4852626781456343
    0.4339288378057857    0.3530422986619111    0.4375639709634825
    0.5960483158637890    0.4483568609963289    0.4464010581379074
    0.3689260121554266    0.6120555146338060    0.4602649164496438
    0.3759122817057878    0.4277726452444383    0.4257442221663446
    0.5517445776687183    0.6046507344300498    0.4613862215360964
    0.4599051394066083    0.6363065853729327    0.4518583181069297
    0.3503286719040188    0.5220140250469989    0.4322372371815717
    0.5257209035123933    0.3762822698877665    0.4289519830419142
    0.4985714446997265    0.4742087075875557    0.4427801516125849
    0.5705010432456112    0.5319488494357780    0.4010236728729228
    0.4182038239750548    0.5777415642292941    0.3871145467983280
    0.4572857280056780    0.4176361376429475    0.3709350457469757
    0.5498359244890146    0.4437589812010385    0.3639245411772551
    0.3947083569060471    0.4892404528206195    0.3561343080841241
    0.5092628874474560    0.6026840422759928    0.3785719603223965
    0.4851280022540854    0.5139960151608859    0.3511925949730582
