Au36 rank 3
1.0
   28.1456152219940279    0.0000000000000000    0.0000000000000000
    0.0000000000000000   27.8826191496243254    0.0000000000000000
    0.0000000000000000    0.0000000000000000   29.8845610880744488
  Au
  36
Direct
    0.5355123213036905    0.5067781271577667    0.6636410301641982
    0.4446031981316984    0.5322581322615889    0.6390527883735373
    0.4718101638733356    0.4367477356879162    0.6387125818086696
    0.3806699052613310    0.4622608749114896    0.6166914265006254
    0.5243515630915638    0.5918630712010178    0.6175749634975433
    0.5751061175612067    0.4317716982869584    0.6163008833105096
    0.4323736134184644    0.6206978883534831    0.6021354370329965
    0.6040912799522916    0.5300293474684732    0.6011632318022408
    0.5111051932684579    0.3603635852463831    0.5952041547944597
    0.3707289618956139    0.5494747213724320    0.5744827429927860
    0.5135525017688517    0.4952859096983480    0.5673273848348521
    0.4217496870020825    0.3892514990727895    0.5685738409255334
    0.5945837663408067    0.6160636020752605    0.5578333016720597
    0.6444099776746839    0.4564438225259154    0.5540668073884846
    0.5020549129040193    0.6434247814386544    0.5404756478490070
    0.3608541094649884    0.4583890949363956    0.5275386862394675
    0.5807377876103619    0.3843083440562369    0.5342795898131382
    0.4089840092715850    0.6179268567010027    0.5125762296348770
    0.6216652243907473    0.5385525284314657    0.5072419662966289
    0.4438399682614168    0.5194454133172635    0.5120836369401456
    0.4881706086520549    0.3564170487546183    0.5060428305364941
    0.3493785986119802    0.5445200961621398    0.4831682672311092
    0.5262568599928652    0.4909152029410699    0.4764706888163229
    0.3986920080135362    0.3846855459264623    0.4793032596337957
    0.5630829841697833    0.6086462146231634    0.4718265036131202
    0.6166457832326477    0.4487862624454751    0.4666421966396644
    0.4762216076670239    0.6473831933779783    0.4525591430970836
    0.3970740537739730    0.4724196439055162    0.4366454709072222
    0.5604528116800983    0.3706849938925831    0.4464331048570032
    0.4243034196502453    0.5688862919728834    0.4273720642758562
    0.4740371958307226    0.4113814852623810    0.4276270429839970
    0.5954862542940340    0.5343953636374018    0.4178506309374984
    0.5157429758275044    0.5876808845463456    0.3913074850504316
    0.5584832586921257    0.4470949667286260    0.3890748066950496
    0.4737146296114911    0.4981335608652969    0.3824516333911031
    0.5556288866065265    0.5242228795057974    0.3317992334784676
