Au36 rank 10
1.0
   29.2886929641789884    0.0000000000000000    0.0000000000000000
    0.0000000000000000   28.9047658563724070    0.0000000000000000
    0.0000000000000000    0.0000000000000000   28.3022932140026597
  Au
  36
Direct
    0.5377456549601963    0.4593619781926837    0.6451939111073295
    0.5405489851297965    0.5544448615415117    0.6405996823422634
    0.3842342766784171    0.4658602736047864    0.5796456105989146
    0.4560099188230718    0.5080359331261187    0.6355749851677975
    0.5596000810624363    0.4143879400171707    0.5640717692440039
    0.4643030183810967    0.4193752801615128    0.6003459830545701
    0.5908274263579895    0.5043119295129862    0.5756271244642117
    0.4697597519162828    0.5996741627211898    0.5989068399659254
    0.3842402036321804    0.5592153217588571    0.6013365501934514
    0.5573783853254503    0.5918756654223338    0.5531926424672906
    0.4953120191253421    0.3493190437734326    0.5443502646446365
    0.4499663179721067    0.5244316921493414    0.5330925474546594
    0.4925772720418226    0.6541094774931807    0.5230989545359452
    0.4056565130169120    0.6162399886852775    0.5245289640068042
    0.4100300858847666    0.3879323160812099    0.5264792168897378
    0.5294502473615553    0.4909970143313729    0.4986094002922152
    0.3497901615887616    0.5355089796089826    0.5150551032757050
    0.6179505671048159    0.4503994744415113    0.4963639209774179
    0.6130916517913256    0.5474302791834680    0.4895346383959464
    0.3404093862485910    0.4439153748300270    0.4971593470702852
    0.5450416856497496    0.3907086213739745    0.4708080928673444
    0.5478375708357294    0.6108795296939202    0.4586131267431240
    0.4616672136332949    0.3488445778991792    0.4539587625361651
    0.4547141474358207    0.4941848106287754    0.4446553616226894
    0.4534047199093839    0.6268625602808906    0.4395791421021361
    0.3641299554713892    0.5947657846082126    0.4400006936527278
    0.3972186978685694    0.4112889479367769    0.4288101689288535
    0.6629448223374595    0.4951655676050004    0.4244069396764013
    0.3584919956846040    0.5014735062604950    0.4203663661433890
    0.5773288853233816    0.4547090089751213    0.4062819360504049
    0.5883742046410899    0.5488502568603236    0.3946090281146097
    0.4922398722259099    0.4150221749426525    0.3926874485744505
    0.4256833194207965    0.5602411915569425    0.3747441638766901
    0.5119118403981463    0.5972870540419692    0.3706374227099980
    0.5092641622493252    0.5037164641693764    0.3592663174122212
    0.4211373886806708    0.4668734963044891    0.3531984358575319
