Au36 rank 7
1.0
   28.2852256549720806    0.0000000000000000    0.0000000000000000
    0.0000000000000000   29.0012945025678093    0.0000000000000000
    0.0000000000000000    0.0000000000000000   29.0391240123660950
  Au
  36
Direct
    0.6002530381727433    0.4678531293463109    0.6601005100285195
    0.5144761547833023    0.4330775602460034    0.6299401629362557
    0.4400481051163816    0.4969340792535222    0.6221511340768890
    0.4326939948538988    0.4095196031698411    0.5832915131345501
    0.5322113296278720    0.5298361799784157    0.6316825978685864
    0.4648544793754570    0.5852066370444167    0.5945415093184158
    0.3552362506241641    0.4655884002617320    0.5835721170809998
    0.5965257883438463    0.4271789519447418    0.5739436639897307
    0.6156474016562107    0.5223818694844522    0.5809781207103315
    0.3726916749299989    0.5583740201159723    0.5888806723583413
    0.5183846404511768    0.3745876846870106    0.5502949767151792
    0.5598399230432892    0.5991712127008638    0.5683144655194055
    0.4834573340565502    0.6537188305708148    0.5323291296300297
    0.3749628210504070    0.4245640509302551    0.5012770333458463
    0.4065146475022509    0.6004739951989416    0.5116954996151468
    0.5033442392572522    0.5542460955996752    0.5007073765676641
    0.5071963324396391    0.4714273642136090    0.5405064861774472
    0.6485762398972090    0.4723242528084554    0.5058886859101824
    0.3563658270106057    0.5187396571035939    0.5031260440574741
    0.5602654997871819    0.6360696473478714    0.4776435536095490
    0.4306714373524418    0.3479867636009798    0.5117257259359269
    0.6081010604722561    0.5559990875174444    0.4917365183856848
    0.5810240694097266    0.4097416511507721    0.4816052318929308
    0.4689586945547199    0.6228104923498726    0.4392405599449988
    0.3874793069544611    0.5674884889913263    0.4261711236116827
    0.4541184530915097    0.4848724209059879    0.4640911476911595
    0.3661121246805507    0.4717752402167746    0.4189760819932185
    0.5110580748990562    0.3503509221728766    0.4584015850287537
    0.4317958830520103    0.3968929712529494    0.4274374717395432
    0.5973094641902813    0.4863995645848586    0.4256774785156881
    0.5515889364490147    0.5707776702546676    0.4110378670183844
    0.5257277327309425    0.4240700148442350    0.4030032836012802
    0.4650455642546673    0.5613968864271615    0.3670214936511125
    0.4480486090231166    0.4656536982892514    0.3630127699945296
    0.3759449490288626    0.5263734778855147    0.3412020308369712
    0.5390935401129859    0.5007187475678829    0.3501347595614851
