Au36 rank 18
1.0
   28.5833951120588523    0.0000000000000000    0.0000000000000000
    0.0000000000000000   27.8697649178625007    0.0000000000000000
    0.0000000000000000    0.0000000000000000   28.4720043685932289
  Au
  36
Direct
    0.5360816192747301    0.5496952206783049    0.6479633704778132
    0.4798664052434578    0.4726605882313273    0.6311537248420568
    0.4441226873494019    0.5666406366717194    0.6336662039474767
    0.5796093507963904    0.4691727651517466    0.6155958888778376
    0.3512111047808667    0.5835305032360675    0.6183303818667562
    0.5236430789749295    0.3892346094927348    0.6062774302435835
    0.3900315598793275    0.4916039049864634    0.5995149320470541
    0.6017235972092634    0.5639847367463933    0.5799650349616300
    0.5124784560048399    0.6124988285184546    0.5786019513024964
    0.4342125969226172    0.4063019122749409    0.5752377317713596
    0.6503473559018640    0.4828854845342507    0.5491312961557867
    0.4190132491310176    0.6160251934589305    0.5528119008415255
    0.5953744322078890    0.4014324563296029    0.5420528671829994
    0.5532023859669162    0.4955270656168239    0.5208441648443565
    0.3514174218422344    0.5482572196347029    0.5288286191577145
    0.5091423641420385    0.3579891770416536    0.5167045439301208
    0.5806288244179544    0.6335269565877369    0.5144467400167607
    0.3729739726741143    0.4510785411121101    0.5122217085471644
    0.4733862447886528    0.4527073736630415    0.4945801843478047
    0.6309549190166900    0.5544311149925933    0.4845492451601071
    0.4883440596834247    0.6386435296364519    0.4880369052981079
    0.4181203541921593    0.3668743546510616    0.4865425207752652
    0.4936566025793633    0.5395903826818601    0.4621980166202573
    0.6288716014200901    0.4528911714452326    0.4591074053287040
    0.4059746484867601    0.5929118618940189    0.4589956054156443
    0.5796536519097183    0.3695873333015833    0.4517591698520032
    0.3538500004128701    0.5129220378506412    0.4402570559427032
    0.5659723664005673    0.6018401817772226    0.4250501299049951
    0.4896489024573661    0.3804718750811570    0.4200995236303889
    0.4062056861776621    0.4349993728593067    0.4160500481041920
    0.6154462610886547    0.5231507714012454    0.3940173538301991
    0.4772590642908911    0.4478731923845616    0.3511239328433088
    0.5657510050214133    0.4398876763898088    0.3864478015022131
    0.4755794843024521    0.6135385281955823    0.3940013085787809
    0.4277670201707229    0.5274941989398829    0.3814675909469479
    0.5249867816303067    0.5322128811969543    0.3631160207048804
