Au36 rank 9
1.0
   28.2090879113029445    0.0000000000000000    0.0000000000000000
    0.0000000000000000   28.7887413338675913    0.0000000000000000
    0.0000000000000000    0.0000000000000000   28.2289532656595128
  Au
  36
Direct
    0.4830757387467141    0.5293643168879143    0.6565888460637135
    0.5598032551463410    0.4836033157974046    0.6241457322907588
    0.4738538167491202    0.4357800936372039    0.6448029695743218
    0.5503529648397114    0.5844696040736705    0.6107252213975551
    0.4108253784086340    0.4970375777580927    0.6002684508220737
    0.4414774472420632    0.5912561420854986    0.5969433375730032
    0.5462257642337918    0.3890867413426076    0.6005525318765816
    0.4131849592793422    0.4036506790950807    0.5732053116845068
    0.6142777013308219    0.5300054098063618    0.5570756938043749
    0.4650003154834577    0.3399470504062223    0.6252189925411307
    0.5029924190449068    0.6544970695689353    0.5599625573878735
    0.5046143277866784    0.5311472745069230    0.5452969009859251
    0.6264531294251823    0.4361093298821828    0.5742628595414691
    0.4860049248389548    0.3506046209440648    0.5304172182399545
    0.5757777436661111    0.3889462806141125    0.5063945564313469
    0.5805469092684696    0.6126293309250234    0.5191942771580270
    0.6350833595430213    0.4649412704898209    0.4833505531580108
    0.3648994715533903    0.5602599406006121    0.5438535010589919
    0.4877814283982056    0.4463122859538520    0.5118465300362706
    0.6417799345083661    0.5587604756478933    0.4682766625688314
    0.3708457582232985    0.4693910195741878    0.5163208873978058
    0.4297473785642483    0.6173922146873660    0.5019845447270013
    0.4127794413875468    0.3916591120712198    0.4742141741741213
    0.5100834026293661    0.6564771956875879    0.4641400249929059
    0.5076488144763165    0.5167585333503542    0.4517794399349589
    0.5053957823858023    0.3769461758095232    0.4382775694845968
    0.5955442786425130    0.4086508692987156    0.4139739632868450
    0.3870523812605354    0.5456149497535986    0.4507461029363931
    0.5659168910918841    0.5953638198937899    0.4194139727635159
    0.5977727596903554    0.5038777232454789    0.4010307959782028
    0.3625856610111438    0.4575713440564792    0.4212381888220775
    0.4611790363105688    0.5946452702134918    0.4095906402907956
    0.5189360656678595    0.4487987135959929    0.3712127408089211
    0.4333554234961492    0.4061484726461171    0.3791213456411579
    0.4349415869064401    0.5046341381237925    0.3761147931313973
    0.5209402203999899    0.5425213052279376    0.3519358846864226
