Au36 rank 5
1.0
   28.2593243023219500    0.0000000000000000    0.0000000000000000
    0.0000000000000000   28.2538833897336588    0.0000000000000000
    0.0000000000000000    0.0000000000000000   29.9686568061719427
  Au
  36
Direct
    0.5310070877073079    0.5368774566222150    0.6650785077665229
    0.4441289051954483    0.5778769866323233    0.6616822664996722
    0.5402257398922546    0.4396043856701614    0.6663135970932395
    0.4513648403468949    0.4805342099720012    0.6580787082192546
    0.6071396652621701    0.5879324326519479    0.6351570780185980
    0.5145314155538133    0.6281197687029559    0.6193803296009427
    0.6081378518438141    0.4919363415058579    0.6223546863881163
    0.3816191745690774    0.5320252728455145    0.6071001347000931
    0.3876463614511379    0.4347068049076248    0.6026860963298061
    0.4773660960548912    0.3964982392903948    0.6098499648870810
    0.4238562810115783    0.6210762538308061    0.5823128064311536
    0.4653497874171050    0.4869183816521336    0.5623462515601556
    0.5754225106764753    0.4057386844327781    0.5875419777234882
    0.5904195639305113    0.6405381646709417    0.5605439704657046
    0.6362012928854576    0.5531361385911451    0.5494636518132304
    0.5013018457051007    0.6453072484027866    0.5269973596228628
    0.6469644819097894    0.4559529351814687    0.5459558161092529
    0.4280559349507596    0.3979832450080059    0.5255016794406208
    0.3546714486417256    0.5764883249029886    0.5315401210900095
    0.3711180266062912    0.4811835737761573    0.5223071202466016
    0.5367061573080275    0.5481620732336590    0.5643345000861935
    0.5150854167162338    0.3526826855418052    0.5364858674542557
    0.5078960144014104    0.5088559851209596    0.4843467287272345
    0.4135209795318253    0.6398248404067332    0.4909816397858619
    0.5796744967665639    0.4123426826809063    0.4949414625258493
    0.5777955018927602    0.5962056164136004    0.4812918594489266
    0.4876701511678985    0.6018100471436750    0.4445045515274386
    0.6123218483050215    0.5038015014126607    0.4729065348843335
    0.4037242558365923    0.5481065997545610    0.4578765278765540
    0.4937830847857062    0.3887223888897155    0.4555194716431937
    0.4202764826610990    0.4526432163409198    0.4482853853539219
    0.5582605955573664    0.4519356529075548    0.4143641147072454
    0.5616804993707900    0.5497258852074087    0.4030844292379814
    0.5336006616305973    0.4923335259412946    0.3315843956385722
    0.4670813097461465    0.5216509753143959    0.3945450622469253
    0.4743160584139871    0.4270653275340517    0.3735912766054945
