Au36 rank 6
1.0
   28.0872029157448360    0.0000000000000000    0.0000000000000000
    0.0000000000000000   27.6377051534044860    0.0000000000000000
    0.0000000000000000    0.0000000000000000   28.7504641344816712
  Au
  36
Direct
    0.4601580102905833    0.5647479479667519    0.6236261994227482
    0.5422069564994915    0.5177871253579784    0.6545147577413967
    0.3808112547929381    0.4113107852002978    0.6431672552213140
    0.4620591802778835    0.4643017156028292    0.6453921904248315
    0.5575188095579060    0.5955912172645641    0.5977861868144410
    0.5489559221817312    0.4280959663715667    0.6100718932801394
    0.6130822905114079    0.5091094921689889    0.5901992089012301
    0.4626580744331823    0.3836759960064791    0.5879723765404415
    0.4772745844737111    0.6457164294539184    0.5712390162507631
    0.6247007807611568    0.4184360711596053    0.5513467547892739
    0.6339058087671903    0.5904834804196745    0.5377134567366988
    0.3850987927714334    0.5037089163898683    0.5984301157342006
    0.5104795718178013    0.5083461846859332    0.5576978577223017
    0.3787889077686359    0.4179041058092173    0.5490145639932253
    0.4037524220845621    0.5855144138028335    0.5465191114625596
    0.5395988617681834    0.3748843059306916    0.5284556771595548
    0.5531138031245624    0.6399044357761414    0.5107349027776069
    0.6442095798427736    0.5000118382153858    0.4986667360482183
    0.4476279258426039    0.3714432588781075    0.4927387976465128
    0.4576313173699839    0.6373136234687576    0.4790035635789423
    0.4523901740720172    0.4757989454461340    0.4908492410115347
    0.3576809843214501    0.5075405517780770    0.5049415559737276
    0.5401740070616846    0.5076990583851586    0.4685430283333113
    0.3701640958933103    0.4216185809405648    0.4553265350310435
    0.6007672126739917    0.4162578287071779    0.4596125180588682
    0.6074926536464386    0.5829602701270435    0.4469420046658260
    0.3766288664497187    0.5896881701948244    0.4548507925304591
    0.5239351135137092    0.3622175889581040    0.4346061791461036
    0.5316617435680940    0.6379555988471026    0.4176528981891087
    0.6245549920931566    0.4947073619212326    0.4049566466065410
    0.4498451412486855    0.4180707720761752    0.4012192006656548
    0.3939929915099886    0.5042448279423180    0.4085751095921570
    0.4529361068431236    0.5842126060185034    0.3947936233247470
    0.5435512579611137    0.4438855966398288    0.3821123508012209
    0.5472066869849491    0.5493757826999930    0.3771199156036873
    0.4696878478003261    0.4989484518352268    0.3476206501664483
