Au36 rank 13
1.0
   28.6433980968066777    0.0000000000000000    0.0000000000000000
    0.0000000000000000   28.3717760165332678    0.0000000000000000
    0.0000000000000000    0.0000000000000000   28.7414499891224011
  Au
  36
Direct
    0.4522036036743450    0.4305369536406518    0.6516323566204630
    0.4684411646892076    0.5253629349760474    0.6441905072972763
    0.5423384499719063    0.4601624794839668    0.6482322682515881
    0.5571213247552431    0.5550801163507407    0.6260900655162076
    0.3944205124314338    0.5776473389465328    0.6135769475274513
    0.3859468021750518    0.4821623541763645    0.6070310303311971
    0.6308736809480345    0.4922882867942116    0.6257614475626164
    0.4823155153574793    0.6100486919240191    0.5960874251651194
    0.6066339928785291    0.4014899771642877    0.6044281292541496
    0.5139580471370944    0.3829553154252439    0.5962792522115148
    0.5712384772949884    0.6338517333912111    0.5712965703108973
    0.4208024940998146    0.3994690961060314    0.5667219610948988
    0.6283135109338348    0.5588108062256866    0.5577685157080279
    0.3489250038507534    0.4464781547953869    0.5254902978125784
    0.3523647175002338    0.5424280063336371    0.5354035152487875
    0.4118291503652512    0.6192757930697784    0.5293428744337172
    0.5026518824263473    0.6412107943954073    0.5062215183711130
    0.6354999632772758    0.4615325643705881    0.5345500985748117
    0.5709845948771683    0.3918119739732244    0.5147296359080803
    0.4827908686939255    0.3539946851979282    0.5107018066868014
    0.5905805759853123    0.6061602946840365    0.4811641891584311
    0.4210899082466792    0.4160916097302865    0.4696321319148126
    0.3744383758082628    0.4998216536378796    0.4509069809787642
    0.6523923723268243    0.5312110734522598    0.4703786247683450
    0.4352369922230042    0.6455187058196252    0.4400612796231574
    0.3508298067776884    0.5951192329227639    0.4557188775078799
    0.5982999650277665    0.4546132081369256    0.4465564390635461
    0.5835085048632663    0.5462906643770046    0.4066192938807844
    0.3636109301628205    0.6459787478897728    0.3759900387033928
    0.5264186735490898    0.6247290478799792    0.4136643109298340
    0.5127262091888737    0.4089273664510405    0.4388747628545685
    0.5431454005406988    0.4667055891444078    0.3697541291003181
    0.4520374774130205    0.4743579249225475    0.3996929006655858
    0.4081614715024233    0.5593722262088653    0.3846072425485795
    0.4999218459777024    0.5505928743479164    0.3568286946201769
    0.4561748762841270    0.6362064415498602    0.3458482331084190
