Au
 1.0000000000000000
    30.0068781830000013    0.0000000000000000    0.0000000000000000
     0.0000000000000000   28.4123718340000018    0.0000000000000000
     0.0000000000000000    0.0000000000000000   28.5711337189999988
 Au 
  36
Cartesian
 15.8461999999999996 15.5135299999999994 18.5544200000000004
 15.9921199999999999 12.8506400000000003 17.8029499999999992
 13.6093700000000002 14.2862899999999993 17.5156899999999993
 18.1060499999999998 14.6026500000000006 17.3257100000000008
 13.6600699999999993 11.6034699999999997 16.9697500000000012
 14.1998899999999999 16.9421199999999992 16.8936500000000009
 16.9582799999999985 17.1567399999999992 16.6095100000000002
 18.3911699999999989 11.9540600000000001 16.6966500000000018
 11.6502300000000005 15.7465799999999998 16.3353000000000002
 19.5306099999999994 16.4445699999999988 15.9207900000000002
 16.0440499999999986 10.9183000000000003 15.7942300000000007
 12.2978000000000005 13.2906999999999993 15.2446900000000003
 12.5731400000000004 17.9402700000000017 14.8528099999999998
  9.9499300000000002 17.2641099999999987 14.8641500000000004
 14.3250100000000007 15.3012599999999992 14.4901999999999997
 15.2893799999999995 18.1822000000000017 14.6406700000000001
 19.5399199999999986 13.7954299999999996 14.9757499999999997
 13.6227000000000000 11.0321499999999997 14.2780400000000007
 17.0492699999999999 15.0996100000000002 14.4147200000000009
 17.9770800000000008 17.7942500000000017 14.0469000000000008
 18.1627200000000002 11.6521600000000003 13.9425000000000008
 15.5508299999999995 13.0444200000000006 13.5467499999999994
 11.6382800000000000 15.5252099999999995 13.4875299999999996
 20.0494300000000010 15.9845500000000005 13.2767099999999996
 16.1123000000000012  9.9880999999999993 13.2392299999999992
 12.7049500000000002 13.1354799999999994 12.5505099999999992
 13.7252799999999997 17.3707299999999982 12.4442000000000004
 16.2146599999999985 18.4149500000000010 12.0343000000000000
 18.7939100000000003 13.7381200000000003 12.2759599999999995
 14.2300100000000000 11.0864499999999992 11.5756800000000002
 17.9895600000000009 16.3874299999999984 11.5541999999999998
 16.9484500000000011 11.8639899999999994 11.3362200000000009
 17.3261600000000016 14.2479200000000006 10.0021199999999997
 14.7330500000000004 13.5132399999999997 10.4835399999999996
 15.3959899999999994 16.1984099999999991 10.5489599999999992
 12.7582199999999997 15.3442100000000003 10.9339999999999993
