Au36 rank 11
1.0
   28.4316978675520176    0.0000000000000000    0.0000000000000000
    0.0000000000000000   27.2099724234957208    0.0000000000000000
    0.0000000000000000    0.0000000000000000   26.6234900272074455
  Au
  36
Direct
    0.5423037919407442    0.4370016172357519    0.6343848728407913
    0.4800047944897672    0.5144431535017396    0.6621534996219636
    0.5187420885736029    0.6031470560994391    0.6135059697403070
    0.6295835405981034    0.4735191138594322    0.5935392993740971
    0.3881638487240597    0.4978235749560257    0.6182380416049862
    0.4465190701673400    0.4209701992441467    0.6473440593462446
    0.5741462908748900    0.5312146031811311    0.6530941145020895
    0.4249792026782843    0.5939492164081200    0.6371082263894688
    0.4942987717279754    0.3690916141853471    0.5760417067922853
    0.5880705792395734    0.3877583090411326    0.5552613101129135
    0.6004579798696820    0.5699896905949807    0.5612697867104347
    0.4607554145804240    0.4440217363328666    0.5026036359821614
    0.3886213972159946    0.4075966634923605    0.5662762457815040
    0.5444074688688210    0.6453385283404924    0.5241187500390279
    0.4485352160710883    0.6365082139549540    0.5421141478254878
    0.4591624199465567    0.5331891054570739    0.5524404957095316
    0.3649757826870276    0.5812614123210160    0.5587823536665728
    0.6808542684599199    0.4151838651639734    0.5292931900001483
    0.3627377250022623    0.4934725515740662    0.5119704898039386
    0.4343915948720447    0.3432830563692354    0.4994622946432820
    0.5444291145550108    0.4843185109868083    0.5368343627477065
    0.5268312458111166    0.3629042491515972    0.4764562067518901
    0.4002121205848879    0.5794554833389834    0.4648184096930566
    0.6132594762161003    0.4085843305073797    0.4555767067142028
    0.5869779292298645    0.5822526710571723    0.4587802141716376
    0.4967458645696116    0.5265146046652842    0.4568428699594677
    0.4857550218650445    0.6296603931370739    0.4441490421165230
    0.3653136747479579    0.4060224550868485    0.4624298932315685
    0.4014963300250129    0.4875205640072054    0.4135965728322535
    0.6377056222915363    0.5017345026375706    0.4924459648783682
    0.5435545187051872    0.4048709428326736    0.3854910875213367
    0.4377873334472773    0.5722592554498253    0.3710834417970207
    0.5355395917334440    0.5751002831338772    0.3717082745841529
    0.4499993329441825    0.3966965034053377    0.4076453922488592
    0.5838401257049377    0.4935833465424420    0.4045205825803418
    0.4875456285210119    0.4827377780060155    0.3601303397489185
