Au
 1.0000000000000000
    30.3820243089999984    0.0000000000000000    0.0000000000000000
     0.0000000000000000   27.7043617600000012    0.0000000000000000
     0.0000000000000000    0.0000000000000000   27.5653192350000005
 Au 
  39
Cartesian
 15.6265599999999996 15.8166100000000007 17.5570300000000010
 18.2371499999999997 16.6656799999999983 17.5620399999999997
 17.6578400000000002 14.0138599999999993 16.9193099999999994
 15.0144500000000001 13.1986299999999996 16.7042299999999990
 13.0603800000000003 15.1387900000000002 17.0054200000000009
 12.4062800000000006 12.6623400000000004 15.9934300000000000
 11.2628199999999996 17.2207800000000013 17.0214800000000004
 17.0388300000000008 11.6177499999999991 15.6986100000000004
 13.9752799999999997 17.7039599999999986 16.3244800000000012
 18.8256799999999984 15.8515999999999995 15.0204100000000000
 19.3288000000000011 13.0853400000000004 14.8512599999999999
 10.0086999999999993 12.4704899999999999 14.5816400000000002
 16.6082399999999986 17.5294199999999982 15.5050799999999995
 14.4219100000000005 10.9057700000000004 15.2411899999999996
 10.5076599999999996 14.8238699999999994 15.8718299999999992
 18.9827800000000018 10.4407200000000007 14.1066199999999995
 13.9823699999999995 14.5278600000000004 14.1642399999999995
 12.1400900000000007 16.6874299999999991 14.4677299999999995
 14.6785599999999992 17.4914999999999985 13.5927000000000007
 11.7835099999999997 10.3800200000000000 14.5876699999999992
 16.6959200000000010 14.1349300000000007 14.1326099999999997
 15.1269700000000000 12.6296900000000001 12.5663099999999996
 11.1445500000000006 14.4579699999999995 13.1323500000000006
 16.3660899999999998 10.0852199999999996 13.4645600000000005
 12.9616799999999994 16.0633599999999994 11.8763500000000004
 19.1848300000000016 14.7069600000000005 12.5562699999999996
 13.6425300000000007 10.1024100000000008 12.6174900000000001
 20.3482500000000002 12.1694700000000005 12.4604900000000001
 17.2671700000000001 16.7281900000000014 12.8833500000000001
 11.8472600000000003 13.9207999999999998 10.5229199999999992
 18.2142799999999987 10.6841500000000007 11.3812300000000004
 15.6759400000000007  9.9743899999999996 10.7953499999999991
 11.4603900000000003 11.7816899999999993 12.2075499999999995
 15.3363999999999994 17.0202199999999984 10.9682899999999997
 19.0559599999999989 13.0888700000000000 10.2840399999999992
 14.5259900000000002 14.4689200000000007 10.1936900000000001
 13.5983499999999999 11.7901600000000002 10.3663900000000009
 16.4082900000000009 12.4679699999999993  9.9557800000000007
 17.2061700000000002 15.0595800000000004 10.6158599999999996
