Au
 1.0000000000000000
    28.7791690019999997    0.0000000000000000    0.0000000000000000
     0.0000000000000000   28.3737831209999989    0.0000000000000000
     0.0000000000000000    0.0000000000000000   28.7599639059999994
 Au 
  39
Cartesian
 12.4609500000000004 13.2017900000000008 18.5373400000000004
 15.1121099999999995 14.4143200000000000 18.6378999999999984
 14.7250200000000007 11.6990700000000007 18.8974699999999984
 15.2609399999999997 17.1451400000000014 17.9189000000000007
 12.8708299999999998 15.9701100000000000 18.6703399999999995
 17.1546699999999994 12.7509499999999996 17.9079400000000000
 17.0957700000000017 15.3513000000000002 16.8801300000000012
 10.4529800000000002 14.9885800000000007 17.7682099999999998
 10.7818900000000006 12.6085899999999995 16.3961800000000011
 11.5975199999999994 17.2903400000000005 16.5782300000000014
 18.7094899999999988 10.8405799999999992 16.6856100000000005
 13.9779099999999996 18.4437899999999999 15.8103899999999999
 15.9382999999999999 10.4327500000000004 16.7846200000000003
 13.1614199999999997 11.1619200000000003 16.6935900000000004
 15.4649800000000006 13.1501300000000008 15.5881500000000006
 13.9612300000000005 15.4880700000000004 16.0949500000000008
 16.6974100000000014 17.8619899999999987 15.6917100000000005
 18.5172099999999986 13.3800799999999995 15.4948599999999992
 18.1778599999999990 15.8557299999999994 14.3569899999999997
 10.0087799999999998 12.9309200000000004 13.7192299999999996
 10.6136499999999998 15.2735299999999992 15.0290599999999994
 17.2536200000000015 11.1463599999999996 14.3531600000000008
 12.8481600000000000 13.3792700000000000 14.6682299999999994
 12.5439399999999992 17.0138500000000015 13.9127200000000002
 11.8005499999999994 10.8687500000000004 14.2364899999999999
 14.5494900000000005 10.4881399999999996 14.4023299999999992
 15.0483899999999995 18.0772799999999982 13.2882300000000004
 14.7685499999999994 14.9180200000000003 13.5501199999999997
 17.7975899999999996 18.3614600000000010 13.2256800000000005
 13.2688299999999995 10.0365300000000008 12.0280400000000007
 11.5687999999999995 14.9138199999999994 12.4492899999999995
 17.2520099999999985 13.5932999999999993 12.9825999999999997
 15.7467900000000007 11.4413199999999993 12.0864600000000006
 13.7740799999999997 16.3988300000000002 11.4362399999999997
 16.6765800000000013 16.1957500000000003 11.9700699999999998
 11.6382700000000003 12.2132799999999992 11.6437500000000007
 15.3835300000000004 13.9949499999999993 10.9231800000000003
 12.7297100000000007 14.2467100000000002 10.0622799999999994
 13.9404299999999992 11.8067200000000003 10.0555000000000003
