Au
 1.0000000000000000
    30.8165558749999988    0.0000000000000000    0.0000000000000000
     0.0000000000000000   28.6886138919999993    0.0000000000000000
     0.0000000000000000    0.0000000000000000   30.5746324580000000
 Au 
  39
Cartesian
 17.0372300000000010 15.5638699999999996 20.5335299999999989
 18.6307599999999987 13.5181500000000003 19.7019400000000005
 15.6944900000000001 13.4405300000000008 19.4379799999999996
 14.7250599999999991 15.9711300000000005 19.0756200000000007
 17.2544900000000005 11.2333999999999996 19.2732600000000005
 16.9747599999999998 17.6859000000000002 18.8157800000000002
 19.2787199999999999 16.1340399999999988 19.0118699999999983
 14.5570400000000006 18.4608300000000014 17.8798199999999987
 20.8553099999999993 14.0460300000000000 18.1980800000000009
 13.5161700000000007 13.8188499999999994 17.7921599999999991
 19.1926899999999989 18.3694200000000016 17.3799300000000017
 15.1406299999999998 11.6115800000000000 17.4390500000000017
 19.3397100000000002 11.8894900000000003 17.5210200000000000
 12.9358199999999997 16.4006399999999992 17.0425600000000017
 16.7130299999999998 18.6364100000000015 16.1784700000000008
 17.3711200000000012 10.0716800000000006 16.7956299999999992
 20.5823399999999985 16.1745400000000004 16.5074700000000014
 11.5076499999999999 14.3163000000000000 15.9292099999999994
 13.4978899999999999 12.4368700000000008 15.4024699999999992
 14.2027699999999992 18.0946600000000011 15.2056699999999996
 12.0265100000000000 16.6620699999999999 14.4338700000000006
  9.9185999999999996 15.0401199999999999 13.7502200000000006
 20.3842399999999984 13.5405400000000000 15.5273400000000006
 15.7820999999999998 11.0294399999999992 14.8033500000000000
 18.6222799999999999 11.5461200000000002 14.8695299999999992
 20.5247400000000013 15.6975599999999993 13.8535400000000006
 12.3123699999999996 13.8316400000000002 13.3014200000000002
 18.8589899999999986 17.6748100000000008 14.7475100000000001
 16.4180300000000017 17.9961100000000016 13.5177899999999998
 14.6730800000000006 12.6257500000000000 12.8760200000000005
 13.8165399999999998 17.6105300000000007 12.5886300000000002
 19.0054599999999994 13.6065600000000000 13.0530700000000000
 11.5121199999999995 16.0828099999999985 11.7259600000000006
 17.1844800000000006 11.6176600000000008 12.5442199999999993
 18.2777400000000014 16.2688400000000009 12.4125800000000002
 16.6756099999999989 14.1749600000000004 11.6755600000000008
 13.9955800000000004 14.7815799999999999 11.3564600000000002
 15.9566599999999994 16.7892399999999995 11.0163700000000002
 13.3915699999999998 17.0669900000000005  9.9610299999999992
