Au
 1.0000000000000000
    28.2381788819999997    0.0000000000000000    0.0000000000000000
     0.0000000000000000   30.0226297809999991    0.0000000000000000
     0.0000000000000000    0.0000000000000000   31.0184009250000017
 Au 
  44
Cartesian
 15.4862099999999998 14.5876800000000006 21.0966699999999996
 15.1048200000000001 17.2130599999999987 20.4418399999999991
 16.7924599999999984 15.5719200000000004 18.7940800000000010
 13.3298100000000002 15.2294099999999997 19.4632800000000010
 14.3673300000000008 12.6534399999999998 19.3306199999999997
 17.0784400000000005 12.9434900000000006 19.5935999999999986
 14.7845999999999993 19.8312799999999996 19.5578099999999999
 13.1764600000000005 17.8892400000000009 18.4936499999999988
 11.8773900000000001 13.2172800000000006 18.2133299999999991
 16.0792999999999999 18.0811700000000002 17.8790000000000013
 16.2336300000000016 11.3700600000000005 17.5749899999999997
 11.5849499999999992 15.9458599999999997 17.4083599999999983
 13.4960699999999996 11.1724999999999994 17.1795900000000010
 17.3193899999999985 16.2854500000000009 16.1456100000000013
 14.4901300000000006 15.8625399999999992 16.8809299999999993
 17.8673099999999998 13.6730099999999997 17.0440900000000006
  9.9896300000000000 14.0725200000000008 16.2367600000000003
 14.2065099999999997 20.0585999999999984 16.8673399999999987
 12.4641099999999998 18.0772599999999990 15.8149999999999995
 15.6622900000000005 14.0111200000000000 15.1098400000000002
 15.2321799999999996 10.1148000000000007 15.3692399999999996
 11.0276099999999992 11.5484799999999996 16.0593000000000004
 15.5651700000000002 18.2954599999999985 15.1717600000000008
 12.9946900000000003 11.1861499999999996 14.1994699999999998
 17.3946800000000010 11.7689000000000004 15.0501100000000001
 11.0566399999999998 15.9470399999999994 14.6167800000000003
 13.5653900000000007 20.0997699999999995 14.2094699999999996
 18.2988299999999988 14.3893599999999999 14.3293199999999992
 13.0554100000000002 13.7787799999999994 15.6701700000000006
 14.0045599999999997 15.9872300000000003 14.0811799999999998
 11.0861999999999998 13.2020000000000000 13.7271800000000006
 16.8539700000000003 16.5858699999999999 13.4293800000000001
 17.9240299999999984 12.3359100000000002 12.4140899999999998
 17.9815100000000001 14.9244100000000000 11.5561000000000007
 12.0824800000000003 17.9180199999999985 13.0548000000000002
 15.4163499999999996 11.3728599999999993 12.9487400000000008
 14.9214300000000009 18.3004999999999995 12.4757300000000004
 13.2040600000000001 12.7441600000000008 11.9264700000000001
 11.9935500000000008 15.2621400000000005 12.0967400000000005
 15.6681899999999992 16.1570999999999998 10.9291800000000006
 15.7264499999999998 13.3150600000000008 11.0148299999999999
 12.9603900000000003 19.9556299999999993 11.4796200000000006
 13.1418199999999992 17.3250300000000017 10.4820799999999998
 13.5874600000000001 14.6580499999999994  9.9317299999999999
