Au
 1.0000000000000000
    28.8588828900000003    0.0000000000000000    0.0000000000000000
     0.0000000000000000   30.2932008040000014    0.0000000000000000
     0.0000000000000000    0.0000000000000000   30.3549696249999990
 Au 
  44
Cartesian
 10.6648099999999992 16.2381999999999991 20.2800399999999996
 13.1758299999999995 17.2886400000000009 20.4654200000000017
 12.6630599999999998 14.7225699999999993 19.2375800000000012
 15.6922499999999996 18.3866100000000010 20.3412299999999995
 15.2670300000000001 15.8101299999999991 19.3677099999999989
 16.6170699999999982 19.9048400000000001 18.2001199999999983
 11.6950199999999995 17.2228600000000007 17.9107200000000013
 14.7328700000000001 13.3217800000000004 18.1564900000000016
 10.1274499999999996 14.8570700000000002 17.9210199999999986
 17.2674799999999991 17.2879600000000018 18.1281700000000008
 14.1466999999999992 18.4892000000000003 18.0640800000000006
 17.2378900000000002 14.5639299999999992 17.8320200000000000
 12.1125000000000007 13.0500799999999995 17.0978199999999987
 16.7949599999999997 11.9431499999999993 17.0197499999999984
 18.7781999999999982 13.5177600000000009 15.6957900000000006
 18.8447299999999984 10.7611699999999999 15.6117299999999997
 14.1229099999999992 11.4750599999999991 16.1609400000000001
 17.8986200000000011 18.9170300000000005 15.9244000000000003
 16.2068599999999989 10.0857100000000006 15.0076400000000003
 15.1942799999999991 19.6344299999999983 15.8223400000000005
  9.9119299999999999 13.6083900000000000 15.5073500000000006
 18.2364800000000002 16.1952800000000003 15.7588699999999999
 13.9118999999999993 15.7116100000000003 16.7857999999999983
 12.8483999999999998 18.2057000000000002 15.5712299999999999
 13.5280799999999992 14.9581700000000009 14.1297599999999992
 11.0035699999999999 16.1532599999999995 15.4519699999999993
 15.8248800000000003 14.1169300000000000 15.3235499999999991
 12.1390999999999991 12.4278399999999998 14.3544400000000003
 17.4149999999999991 12.1801800000000000 13.6485699999999994
 14.6468299999999996 11.7521000000000004 13.4346300000000003
 16.8924300000000009 20.2055800000000012 13.6990099999999995
 17.7894499999999987 17.6155299999999997 13.3469400000000000
 14.2841100000000001 18.9605999999999995 13.3110800000000005
 10.8489900000000006 14.5823999999999998 13.0981000000000005
 17.8589500000000001 14.8777600000000003 13.3218099999999993
 15.4883500000000005 16.8345100000000016 14.8028300000000002
 12.0870999999999995 17.2323099999999982 13.1069099999999992
 15.9424700000000001 13.5291099999999993 11.7608599999999992
 13.0634800000000002 13.3216800000000006 11.8323000000000000
 16.2666100000000000 18.9233599999999988 11.3437500000000000
 16.5354600000000005 16.1990799999999986 11.2867499999999996
 13.9668700000000001 17.4715799999999994 10.9871200000000009
 11.8982799999999997 15.6591699999999996 10.8135800000000000
 14.4384800000000002 14.9338700000000006 10.0304099999999998
