Au45 rank 14
1.0
   30.1346225467009887    0.0000000000000000    0.0000000000000000
    0.0000000000000000   29.6215742341656423    0.0000000000000000
    0.0000000000000000    0.0000000000000000   29.6453989958855217
  Au
  45
Direct
    0.5372262125854502    0.4672448807493226    0.6528336109762219
    0.6274139991948329    0.4617134263255445    0.6609093382658093
    0.4996363967868709    0.5455416295937913    0.6151806040763965
    0.5912684661049453    0.5328092920162103    0.6154370735036702
    0.4878910569685523    0.3875346428412129    0.6363257270685883
    0.3971495728157965    0.3965250073032601    0.6339079480425251
    0.3546765168779143    0.4798216689239521    0.6309986207472681
    0.6667779924559289    0.4018804101761108    0.6044430607651887
    0.4455397170622675    0.4763308860602297    0.6456553371292064
    0.5792982819759431    0.3842144701928614    0.6325582912657982
    0.4103448904879887    0.5455886286693181    0.5927160898668432
    0.6670039579902798    0.4906680539297428    0.5777429254540040
    0.5553949569054386    0.6076515796041364    0.5750705173720093
    0.6472575020165863    0.5778616669570055    0.5556525077796085
    0.4942014315209760    0.4574873283198435    0.5677507180624670
    0.4408119970758833    0.3728416634291000    0.5552363504114888
    0.3695727303761747    0.4342866820093950    0.5515722511479499
    0.5505971619841585    0.4410168398270436    0.4988479929625576
    0.5312431555028854    0.3553513832964640    0.5592445030721256
    0.4672488493173654    0.6020504058438316    0.5478392461355995
    0.3310768672851972    0.5221768904358859    0.5519326635693018
    0.6199929153352792    0.3371291122636258    0.5605375596622565
    0.6146327109093119    0.6632602347086570    0.5346477429567372
    0.6439216669903364    0.4177879743777534    0.5168709624656649
    0.4679154026967215    0.4790524004225469    0.4817288135526826
    0.3826582765718582    0.5826876374946665    0.5071419971611550
    0.6311372463608623    0.5061001067263148    0.4942288032664474
    0.5277873900921797    0.6563092640308926    0.4981641868498715
    0.5341464427489828    0.5303804838857985    0.5212502940556404
    0.4066688449804802    0.4026209870972138    0.4738555129446175
    0.4887019044392634    0.3574014475695110    0.4772039096343700
    0.3746077705310528    0.4913951574358728    0.4777125028637930
    0.5947839708538375    0.5925791266821911    0.4785372705783893
    0.5822153909320588    0.3534257216681178    0.4774543638532923
    0.4429556123627064    0.6387100392919868    0.4667052086483344
    0.6120603477563593    0.4348458994746688    0.4307200537925793
    0.4278506764398649    0.5534853753700614    0.4310692907075713
    0.5135522178830992    0.5884024273111939    0.4342533654918445
    0.5769237372515604    0.5225812735146529    0.4217580470018282
    0.4203941373770807    0.4625821941003066    0.4010999308858320
    0.5389654691871598    0.3804781153064235    0.4008087764804654
    0.4465777852662187    0.3696318231358026    0.3977856711093093
    0.4945257515887619    0.5145606615417779    0.3798038141493096
    0.5660836295784013    0.4584341795731529    0.3557624284264669
    0.4822155544727922    0.4305428216219627    0.3402585819810272
