Au45 rank 6
1.0
   30.1608117517985086    0.0000000000000000    0.0000000000000000
    0.0000000000000000   29.3586930689013350    0.0000000000000000
    0.0000000000000000    0.0000000000000000   29.8830325380474555
  Au
  45
Direct
    0.5328154496281305    0.3392620856437608    0.6644296849450329
    0.5298054281799361    0.4343284391276437    0.6602640769521888
    0.4484501644841145    0.4779973991680955    0.6484994197459255
    0.4536732876326214    0.3815014679003533    0.6467564228041902
    0.5258885584406424    0.5285731095254873    0.6487851478776148
    0.4437110361582540    0.5703309572710178    0.6380629709110884
    0.3766980596383604    0.4250559285585138    0.6272831375263748
    0.5208896031635646    0.6203969148284830    0.6209249387080510
    0.5975112153296064    0.3853917388550827    0.6163224197500554
    0.6014678287943754    0.4810616179402624    0.6257238411951507
    0.3662201337888776    0.5175367809338459    0.6295575213299639
    0.6006329972632931    0.5760737610978393    0.6255306119298958
    0.4390180647402344    0.6605649713261228    0.6069236076857174
    0.3624878445001590    0.6112296663546390    0.6179782141767349
    0.5151628431791200    0.3617341961864364    0.5766823679942557
    0.5823866549310734    0.6409081984512162    0.5538872223247953
    0.6510959873783930    0.4369962370412879    0.5614782784422000
    0.5174848924876148    0.4586550458132483    0.5683435209152713
    0.6661467742329225    0.5293958806221922    0.5764953925672243
    0.4351497893614834    0.4034777805031099    0.5557733350505761
    0.4922247253450082    0.5479060181001399    0.5573256013571780
    0.3715934297199442    0.4696409654864230    0.5456264610711999
    0.6667919302170198    0.6241624568858065    0.5834981270769826
    0.4946378960172388    0.6428646637790859    0.5325428801491312
    0.5882808523989923    0.3770744184878304    0.5237758473538234
    0.3335191239922742    0.5549046794668979    0.5497276214900925
    0.5811211885820666    0.5184526604652795    0.5334020903625888
    0.4108515121613823    0.6035084639850956    0.5377047257993293
    0.5025027076407280    0.3941627963872442    0.4912700485698338
    0.5525064007101549    0.6016625184259975    0.4733427135465788
    0.6666663169486511    0.4955573786795701    0.4897048702870087
    0.5095905097552007    0.4950786765522823    0.4827386673230488
    0.4261446799176384    0.4473368748445723    0.4747644317086561
    0.6407497454097729    0.5871474140804703    0.5026954150331864
    0.4626517466629189    0.5837916586537004    0.4653645364811332
    0.3852747278507451    0.5334596716629294    0.4781120553667237
    0.6616240645356357    0.4018988192588422    0.4761881528058314
    0.4942756557216734    0.4376938319479809    0.4095171815971611
    0.6071512045516113    0.5384284417899783    0.4322685460323526
    0.5210912297160838    0.5499198291877970    0.4024500586113191
    0.4344155404616637    0.5133875097446513    0.4056880309089722
    0.5773751781027205    0.4118811702291942    0.4389033698532180
    0.6523113611184214    0.4610777633762598    0.4055128989720767
    0.5714193355907257    0.4775242053203186    0.3692830610903667
    0.4885649930963901    0.4926825219946778    0.3348830358925659
