Au45 rank 4
1.0
   29.4204288876863487    0.0000000000000000    0.0000000000000000
    0.0000000000000000   29.6428425721298865    0.0000000000000000
    0.0000000000000000    0.0000000000000000   29.0907638165785158
  Au
  45
Direct
    0.4867635028935074    0.5080797992273628    0.6568360931519497
    0.4464345920066545    0.5861665109135157    0.6291384550181974
    0.3925151182217097    0.5106805925176175    0.6349308072282326
    0.5393464418569716    0.5656638587395453    0.6054831207649315
    0.4491564280289631    0.4489278865050218    0.5921972670184146
    0.5050597361524028    0.6515553526362466    0.5958621147422517
    0.5415138337196292    0.4728227777437172    0.5889356651239838
    0.4143179573310763    0.6509954808530575    0.5706293348121323
    0.3772573840201542    0.5673373510426989    0.5616643663418655
    0.3620703631660075    0.4746470926106041    0.5534060587878861
    0.6084598870567853    0.5336411329650871    0.5493329901941468
    0.5067415583763220    0.4082226857613983    0.5297842880341904
    0.4120731146126126    0.3983817226886947    0.5210165405590124
    0.5619800563203390    0.6165430855263778    0.5299228110803458
    0.5945625922980364    0.4432153645307499    0.5175002606748972
    0.5264608650536982    0.5265788903071814    0.5053283649234267
    0.4806605665521947    0.6610839325738417    0.5046036151581551
    0.4407732820064993    0.4893594073561273    0.5027006036746487
    0.3993524321357351    0.6159534724859259    0.4841772464952656
    0.6591502121253671    0.4982493123600722    0.4775058620379227
    0.3554361824342280    0.5348071949784351    0.4760721664911413
    0.5615909067804793    0.3739322304205669    0.4616344808174309
    0.3499109028969845    0.4427782171083994    0.4643990459217470
    0.4692590943130203    0.3627004042623624    0.4542802294410403
    0.6061207770033394    0.5729623935308935    0.4598872757683229
    0.3755230053026072    0.3558444003903797    0.4445261296209885
    0.5074598802815393    0.4564256070032900    0.4419497704419558
    0.6409941554419932    0.4196543392704781    0.4347352576539482
    0.5490846124492255    0.6458973434858534    0.4418064942676685
    0.4694795615739779    0.5446081813953991    0.4345176554037729
    0.4544293468590115    0.6454293725983056    0.4152407487427305
    0.6066652875685483    0.5014961784744382    0.3975129489994425
    0.6146140892266236    0.3415012410575043    0.3912150211102870
    0.3881276900905054    0.5785436147004149    0.3960759670767882
    0.5227810670369012    0.3377045297607681    0.3775383255444572
    0.3407949298251278    0.4987348939502534    0.3888765005347602
    0.4305252740627786    0.3368472993594916    0.3695989595824789
    0.3833778391556878    0.4189543784986472    0.3745991484011811
    0.5696333885835215    0.4208989398224277    0.3692002461029874
    0.5651246361891893    0.5808482054654969    0.3739207610624279
    0.4756606259323497    0.4181743126515676    0.3552906941354262
    0.5223488970456805    0.4999509300329257    0.3544043482523770
    0.4282252265407908    0.4991558172197493    0.3536511335956694
    0.5215469358469502    0.6611830012417194    0.3525456545466880
    0.4728024115100896    0.5808934398562079    0.3461790257361170
