Au45 rank 10
1.0
   29.6072453089636127    0.0000000000000000    0.0000000000000000
    0.0000000000000000   30.7157448068196004    0.0000000000000000
    0.0000000000000000    0.0000000000000000   28.9403970265019623
  Au
  45
Direct
    0.5166269048572354    0.4504116755416819    0.6519544010373836
    0.5143436820669931    0.5395685477690034    0.6389886457097541
    0.5973170628979154    0.4933172318772887    0.6333335926515965
    0.5978463721863636    0.5826770732442370    0.6296024459288555
    0.5944936246820141    0.6710687133354206    0.6200649862502315
    0.4382583771350982    0.4849742897354327    0.6191431163786942
    0.5139068264546345    0.6252155383974402    0.6078349623879969
    0.4367961115150232    0.5777504461433489    0.5975185568177737
    0.5752516889432093    0.4125293192803033    0.5912520344122726
    0.6627098221353923    0.4454089182847091    0.5866393319197479
    0.3634261207631118    0.5230612708020294    0.5807093297558646
    0.4842785250879591    0.4187264157220888    0.5702338494283522
    0.6571565888464553    0.5342524061970901    0.5706256235405938
    0.6350256908815120    0.6204895257221843    0.5505739311334372
    0.5640436774874952    0.5336243739893307    0.5499904618062472
    0.5539932238274865    0.6676870558518595    0.5350532667526718
    0.4733681221332837    0.5177859159300982    0.5330948034745794
    0.4044715502703249    0.4513523646302078    0.5345508241063679
    0.4720524971869929    0.6248682959698189    0.5222375174034213
    0.6349984204909074    0.3827413240860701    0.5242783719520222
    0.5410293428278810    0.3689638295165530    0.5162762374856749
    0.3979234861212410    0.5712243618607992    0.5064946138413580
    0.6342536953057855    0.4728871324561280    0.5005999937610518
    0.3380430889865150    0.5006724859563085    0.4926545257945911
    0.5339399641899427    0.4638872523446962    0.4926198432084071
    0.4591824010752010    0.3986858040742176    0.4809171811664714
    0.6297995922294857    0.5614742517017384    0.4802415705702550
    0.5247105025519979    0.5562950467266008    0.4663372384508918
    0.6171624834574286    0.6513940189172730    0.4636439082878879
    0.5996183766873603    0.3251043928615834    0.4582709400904688
    0.5232283820145007    0.6537516871138281    0.4482925611908769
    0.5958485206916290    0.4124747541671071    0.4398024347580434
    0.3903572950615996    0.4469781921302176    0.4388502004508669
    0.4457109780056542    0.6046287544703519    0.4331609018439214
    0.5203762811285948    0.3552654831237788    0.4217320950625582
    0.5917083562836263    0.5003739459441237    0.4195848767223065
    0.3862438913358345    0.5358530641384149    0.4186717264599832
    0.5876483016143795    0.5873994063048630    0.3986785805075145
    0.5221889859508945    0.4442450929114564    0.3907154375275891
    0.4445167877571425    0.3932859037876326    0.3871898151127533
    0.5818875407687406    0.6734356311462488    0.3764781703134802
    0.4366655907424177    0.5679731417326036    0.3466235982220474
    0.5070252332008921    0.6229074243017991    0.3588951638106811
    0.4387735992077429    0.4799435497501202    0.3640157177067380
    0.5188649654927031    0.5308131224441335    0.3677695313560435
