Au45 rank 8
1.0
   30.9858165365823446    0.0000000000000000    0.0000000000000000
    0.0000000000000000   30.2380949479059034    0.0000000000000000
    0.0000000000000000    0.0000000000000000   29.4504972915454992
  Au
  45
Direct
    0.5082481488065845    0.5804034026766922    0.6602879202472767
    0.5127907500621547    0.4922614668222363    0.6456549508061166
    0.5170058444033747    0.4056125656873610    0.6261895433759739
    0.5667109646403006    0.4623800546505355    0.5743283100596468
    0.5539110021043409    0.5549100033949734    0.5860767538907554
    0.4580877487016564    0.5486883420031189    0.5920444905516746
    0.4707432522228586    0.3654014815106316    0.5578442109616065
    0.4552531312540075    0.4552111904259691    0.5813434508031042
    0.5597182327047799    0.3711702809509447    0.5521737166276823
    0.4090117974520621    0.5103728446776247    0.5239888438584719
    0.4490726612556759    0.5924238755904379    0.5114380886775378
    0.5043441551991099    0.5100135615394766    0.5162319072189377
    0.4067935456053501    0.4168492077032422    0.5145515028176519
    0.5481520059253026    0.5988094551127314    0.5052248015782010
    0.5990773678954656    0.5227159438998725    0.5120190918828786
    0.4933155093206966    0.6697269017319212    0.4948304962621163
    0.6114425911297974    0.4301090306833921    0.5015758378789115
    0.4246900799288618    0.3299486585036379    0.4874065341806413
    0.5132696025671720    0.3321850680663059    0.4817351061045188
    0.6014406710573206    0.3414068448100132    0.4761780792141113
    0.3635147871127889    0.4718858972410385    0.4540545703733640
    0.3937624734377773    0.5570816604277110    0.4453292496526692
    0.4581881715249277    0.4663224982422250    0.4487991064575530
    0.4968876028137996    0.5489346647197794    0.4293821118209578
    0.4457675799547107    0.6329051520124190    0.4253399897979523
    0.5474446246438041    0.4721576342743536    0.4431977084475590
    0.3713504686195381    0.3793134684942296    0.4353705956257852
    0.5994719322225115    0.5705128515358862    0.4323412931162294
    0.6405767863267724    0.4898906532570778    0.4366106987684740
    0.5366481540295840    0.6387289536528648    0.4196145264730143
    0.4620825938094650    0.3747499179186566    0.4157257240714779
    0.6420339430761655    0.3969000552432965    0.4182285276234143
    0.5509499815537868    0.3806028368470940    0.4101459780208792
    0.3224828247713227    0.4326572665864686    0.3811777802899891
    0.3594109780958750    0.5139035043144654    0.3673695426733805
    0.4109547898509069    0.4356263047509111    0.3693690181340204
    0.4006208426168344    0.5920159356411909    0.3581915833899645
    0.4997552355137425    0.4400401624891226    0.3611901441826404
    0.4889591321499146    0.6019501014292035    0.3477641247668525
    0.5887256280133685    0.4472665359517966    0.3582299011387338
    0.4495217203829453    0.5155996371523288    0.3475508580298748
    0.5783213964401057    0.6035221735671388    0.3468719770114009
    0.6775936980842295    0.4557722365113056    0.3588585276514973
    0.6296096151001899    0.5314742529779225    0.3503408891435794
    0.5383817220466595    0.5213544719743877    0.3419825073901516
