Au45 rank 3
1.0
   29.3423755013721674    0.0000000000000000    0.0000000000000000
    0.0000000000000000   31.6545126944610260    0.0000000000000000
    0.0000000000000000    0.0000000000000000   29.0755613902378158
  Au
  45
Direct
    0.4755120643722734    0.5643583084232006    0.6548401927180629
    0.5350782687862615    0.4980481405021609    0.6451734211643815
    0.5658083442663258    0.5814220021689456    0.6344973420544637
    0.5940108644265206    0.4304343409667839    0.6362179578972657
    0.6247958931882363    0.5114671907443535    0.6187602121019161
    0.6530093433530462    0.5914542151285229    0.5985288253805865
    0.4074427967525359    0.5777715497968827    0.5936645713277323
    0.4924604826039507    0.6188681812543033    0.5831507023638519
    0.4526347183491862    0.4983941391438420    0.5958682469976022
    0.5110176572988220    0.4304507893293683    0.5894848767076802
    0.5813193491661165    0.6384813915272021    0.5636351991636127
    0.5809875857659276    0.3704759936080584    0.5715365012277810
    0.6226644812994596    0.4506010521369370    0.5491573400804155
    0.6490318233937632    0.5320802288572409    0.5275548597445896
    0.5464494559575491    0.5428157723623181    0.5497176325153764
    0.6595417639144902    0.6181822930811551    0.5096064721761494
    0.3403254017946284    0.5892740174819666    0.5280449051762277
    0.4272252128577108    0.6225151411061404    0.5134023665039676
    0.3838299822709233    0.5122937651105900    0.5309306704052605
    0.5132773932625632    0.6504715737868781    0.4979163628498352
    0.4431726150674300    0.4442618193574734    0.5227622392867881
    0.5988616256173633    0.6817049095911272    0.4842497656780061
    0.5043812143663905    0.3792041954490764    0.5117041343436924
    0.5358944376122247    0.4676386215123182    0.4966489429569895
    0.5531220696087501    0.5475215459616266    0.4550138592310256
    0.5673555630678713    0.3156269055951320    0.4995985672911984
    0.5972942453222593    0.3958563790967049    0.4785797054252198
    0.6253628820317189    0.4774459005622481    0.4578116861273360
    0.6481711816996270    0.5599409889034307    0.4370095279341353
    0.4701530964466539    0.5317094321478796    0.4933394827867335
    0.3876153842181132    0.5662238715502552    0.4500799490680877
    0.6546608786663161    0.6460371896527672    0.4192873255437542
    0.4703754087998743    0.6053963780706226    0.4290611660769366
    0.4040998691239035    0.4790181692738790    0.4439465330343040
    0.5575961973032069    0.6346910093202829    0.4153423404988936
    0.4599399592340430    0.4097533202852257    0.4359086671777762
    0.5319156087533680    0.3515742370338515    0.4217410591551551
    0.6162549304847524    0.5950670308821312    0.3543953911147478
    0.4404255186819695    0.5353193377769210    0.3784448363682322
    0.4253594135621917    0.4511979873172854    0.3573771267899963
    0.5956182918997758    0.5111431266574769    0.3741985102290507
    0.4973614598988454    0.3958872598904840    0.3493593203506541
    0.5247091739345785    0.5690639451926132    0.3607112686814954
    0.5106300861932470    0.4844721488264562    0.3426330174526410
    0.5654806466073117    0.4333971724632759    0.3992884768124437
