Au45 rank 12
1.0
   29.9394091486789335    0.0000000000000000    0.0000000000000000
    0.0000000000000000   28.8407674383299195    0.0000000000000000
    0.0000000000000000    0.0000000000000000   31.2136103143211940
  Au
  45
Direct
    0.5028944792096952    0.6435536567153629    0.6778337167462327
    0.4290014641509104    0.5978276735413609    0.6482069746969314
    0.5148044647420768    0.5604339947882159    0.6345405345018308
    0.5744194666450261    0.6376619588639646    0.6244210663442358
    0.3606003979609207    0.5499582398023808    0.6165559111850696
    0.4411987213510533    0.5028594899569616    0.6216561701661040
    0.4841872881899361    0.6472259828599163    0.5912637815688052
    0.5264136856070659    0.4793043771501446    0.5902225662663603
    0.5945065839876565    0.5470919582068734    0.5920558930219205
    0.4511979102704538    0.4208300200201757    0.5764253853851361
    0.3799282489410085    0.4815473258053024    0.5574915527904087
    0.4000802035469634    0.6229005615551565    0.5648272125062563
    0.6420559373179080    0.6276523922711588    0.5679947896991869
    0.5141040942056552    0.5642284672085873    0.5400392379970854
    0.5584708186322223    0.6521382529408416    0.5365066695925683
    0.6016564337519444    0.4721845913971590    0.5367395567201101
    0.5347156071999410    0.4066995426219685    0.5327703596984137
    0.6651380714583808    0.5423016735902131    0.5344580215493181
    0.3348463576615218    0.5640357306912129    0.5339968195808563
    0.4601810217460013    0.3527128024155121    0.5150793898293170
    0.4013003894769169    0.4208218951232222    0.4908325831266919
    0.4665748842288182    0.6495923157754054    0.5059513873960382
    0.4683913236787323    0.4843313310107012    0.5133443635656507
    0.5429966612417237    0.5119776147111270    0.4675459967636206
    0.3867742250405808    0.6100345238565436    0.4755501928952220
    0.6189693830628805    0.6053412521704739    0.4835743148452072
    0.3751425504561250    0.5115301846275968    0.4725454291417666
    0.4664123533106027    0.5603490599017694    0.4639828364122516
    0.6347202635737100    0.5112797628578853    0.4574395719611826
    0.5876830875119283    0.4246757314379458    0.4599918708843979
    0.5400765108756302    0.6424621358659619    0.4522742331170339
    0.4542142348130961    0.3763461677889232    0.4303083376593830
    0.5357263354536491    0.3455572600619975    0.4645051057948538
    0.5885215393014553    0.5756339682717944    0.4053909025120122
    0.4529544116643298    0.6398210184376638    0.4163127487654253
    0.5383020646231498    0.3961766745265975    0.3900453591830419
    0.5826430545104015    0.4817246826290347    0.3877431278941094
    0.4025638609907898    0.5555463049142242    0.3981998911984713
    0.5303840914314808    0.6355370711252667    0.3655566768186954
    0.4094851040937551    0.4585809286617571    0.4087788934101976
    0.4519573145956459    0.5985171501718475    0.3356014725660910
    0.5353747988259363    0.5473081584659854    0.3367685329463209
    0.4548556578878668    0.4083773070512094    0.3489224721945791
    0.4505066428499812    0.5037844306746816    0.3398442269619253
    0.5295693266553408    0.4554761823109465    0.3214684605713952
