Au45 rank 16
1.0
   29.2015559012154142    0.0000000000000000    0.0000000000000000
    0.0000000000000000   30.1384557778738582    0.0000000000000000
    0.0000000000000000    0.0000000000000000   29.2083596982451965
  Au
  45
Direct
    0.3631845261465208    0.4166111682700884    0.6542294594621094
    0.4623899904065765    0.5377469316521211    0.6368054874281882
    0.4492327214950405    0.4466835174446714    0.6289408609507511
    0.5392998079919358    0.5755107657580167    0.5934892710027396
    0.3720587868583817    0.5035136891121278    0.6261987086462739
    0.5290618465561764    0.4829753033851506    0.5955294756202090
    0.3894136244578594    0.5862920399517751    0.5947749065038125
    0.4134052826475034    0.3685575824720919    0.5909769983613280
    0.6030060299732495    0.5221874181597833    0.5533583437494694
    0.4693697308576165    0.6281270056830711    0.6267742202379969
    0.5020029714978903    0.3969804635870524    0.5686192597537245
    0.3525984132960203    0.4372695470227455    0.5629924830025708
    0.4131647498056415    0.6679314501115137    0.5614048132950270
    0.3460544503704092    0.5264118573290396    0.5365938034014207
    0.5000943462046650    0.6422441244542645    0.5370680095099585
    0.5840785838980890    0.4305075883749897    0.5382664730934560
    0.5033352995723019    0.5551834014409958    0.4980640277566517
    0.5829003623453394    0.6053891921047901    0.5123346831033392
    0.5073129970248983    0.4646909493891358    0.4892553212857513
    0.4567841950565800    0.3317360996485704    0.5183353058853087
    0.3607621582159491    0.6119914004778531    0.5071834657959448
    0.6582219894682488    0.5606376671510801    0.4856978688925678
    0.3768933495714185    0.3746565204835623    0.4996646378955562
    0.4407670037784025    0.5015405496248411    0.5475549225471172
    0.6584685479030772    0.4689800457804487    0.4996620495662255
    0.3467328393343333    0.4585388313765710    0.4730545848030570
    0.4352952725894922    0.6630906622854236    0.4711802028614827
    0.5285077879863974    0.3754240738496900    0.4784155800090006
    0.5207760626645375    0.6332068335741606    0.4440445130898508
    0.3451809219135580    0.5459192725768925    0.4436145118336186
    0.4343536305761495    0.5102117527209417    0.4541842929631715
    0.5890008694944329    0.5742423988140058    0.4213060070499893
    0.5912255195236990    0.4355829028729669    0.4421209743975787
    0.4481363150976876    0.3574662685579492    0.4300238540708364
    0.3650935611201425    0.6311283949145972    0.4148077846994418
    0.3598222195306309    0.3914531479667337    0.4103517373979322
    0.6468489722659355    0.5028349102414263    0.4106626880249548
    0.3760215645120651    0.4775082393038003    0.3835160406700837
    0.5126026168414867    0.4166861306141645    0.3940245031718468
    0.4518224755413792    0.6467990096553543    0.3795993992504856
    0.4125130899768006    0.5626170274301615    0.3746116532668675
    0.5074702078500281    0.5727400947058076    0.3743065670955230
    0.5599494469523185    0.4962915774103744    0.3778264476813593
    0.4682861478375606    0.4901293487024582    0.3583070770239870
    0.4302885333919489    0.4062797232205620    0.3514463430418912
