Au
 1.0000000000000000
    30.1608117520000008    0.0000000000000000    0.0000000000000000
     0.0000000000000000   29.3586930690000010    0.0000000000000000
     0.0000000000000000    0.0000000000000000   29.8830325379999984
 Au 
  45
Cartesian
 16.0723400000000005  9.9610599999999998 19.8560799999999986
 15.9786999999999999 12.7490500000000004 19.7286800000000007
 13.5244300000000006 14.0293399999999995 19.3798700000000004
 13.6805099999999999 11.1954700000000003 19.3270699999999991
 15.8619400000000006 15.5133100000000006 19.3825900000000004
 13.3836600000000008 16.7378800000000005 19.0573100000000011
 11.3600999999999992 12.4769000000000005 18.7450399999999995
 15.7084200000000003 18.2104700000000008 18.5578099999999999
 18.0261400000000016 11.3131299999999992 18.4219800000000014
 18.1481899999999996 14.1187699999999996 18.7104700000000008
 11.0440900000000006 15.1915399999999998 18.8126500000000014
 18.1147600000000004 16.9089099999999988 18.6878799999999998
 13.2383000000000006 19.3921199999999985 18.1384299999999996
 10.9322900000000001 17.9398300000000006 18.4680500000000016
 15.5392399999999995 10.6295999999999999 17.2358699999999985
 17.5628600000000006 18.8191200000000016 16.5528499999999994
 19.6382399999999997 12.8269500000000001 16.7809300000000015
 15.5748200000000008 13.4734499999999997 16.9882899999999992
 20.1022600000000011 15.5381699999999991 17.2347600000000014
 13.1198200000000007 11.8456499999999991 16.6048200000000001
 14.8630600000000008 16.0984599999999993 16.6372199999999992
 11.2140400000000007 13.7959300000000002 16.3038200000000018
 20.1095199999999998 18.3224799999999988 17.4353499999999997
 14.9164600000000007 18.8782299999999985 15.9147999999999996
 17.7411600000000007 11.0728299999999997 15.6535200000000003
 10.0582499999999992 16.2931500000000007 16.4241300000000017
 17.5394900000000007 15.1908300000000001 15.9655699999999996
 12.3957099999999993 17.7104800000000004 16.0707999999999984
 15.1546800000000008 11.5800800000000006 14.6812299999999993
 16.6591699999999996 17.6549799999999983 14.1515100000000000
 20.1112000000000002 14.5456299999999992 14.6368299999999998
 15.3991799999999994 14.5334500000000002 14.4174100000000003
 12.8587699999999998 13.1488999999999994 14.1858900000000006
 19.3165000000000013 17.2273899999999998 15.0292399999999997
 13.9511699999999994 17.1333899999999986 13.9053900000000006
 11.6062899999999996 15.6690199999999997 14.2739300000000000
 19.9572600000000016 11.7971000000000004 14.2319499999999994
 14.9046400000000006 12.8581500000000002 12.2326499999999996
 18.3042499999999997 15.7964000000000002 12.9268500000000000
 15.7145299999999999 16.1459800000000016 12.0218000000000007
 13.0948300000000000 15.0813900000000007 12.1133199999999999
 17.4129299999999994 12.1196400000000004 13.1262399999999992
 19.6764499999999991 13.5352499999999996 12.1170899999999993
 17.2373399999999997 14.0252900000000000 11.0237999999999996
 14.7334599999999991 14.4705700000000004 10.0013799999999993
