Au45 rank 19
1.0
   29.4501745189452180    0.0000000000000000    0.0000000000000000
    0.0000000000000000   29.5423327994899765    0.0000000000000000
    0.0000000000000000    0.0000000000000000   29.7666890280106458
  Au
  45
Direct
    0.4523741159267977    0.5728605181431936    0.6626631763448046
    0.4172438026040681    0.4874942349545764    0.6378674179067250
    0.5096427986757138    0.5084620970593164    0.6275820249835811
    0.4809444419620830    0.4204075624681635    0.6247643864609795
    0.3664568540458484    0.5646633757999011    0.6268123380747290
    0.5218658096276103    0.6015766743974759    0.6094087721358189
    0.3904277344430981    0.4124496587971977    0.5901169680241629
    0.4307585026215330    0.6260897116112929    0.5905087677141266
    0.5896561445776358    0.5354919701603834    0.5862753001748344
    0.5586351088840552    0.4472863299306972    0.5767754157631348
    0.4421535606046396    0.3377545953310789    0.6084376589488812
    0.6619926422308665    0.5643254817221084    0.5359909124743082
    0.3552568818688467    0.4942360313237837    0.5662424810366964
    0.5841407711103963    0.6188765501084442    0.5412701468728904
    0.5047476438602450    0.3741377822528500    0.5472462311080373
    0.4150888649695894    0.3518826345736318    0.5217761040781665
    0.3616748746901196    0.5825413505203159    0.5368093528070742
    0.4972192282830484    0.6478313176618392    0.5279509004314699
    0.5105401143478207    0.5479970842368330    0.5328198994676273
    0.5000135177802155    0.4609569575101898    0.5008729174360258
    0.6261754970349462    0.4805367862047674    0.5204844464063321
    0.3629297488933965    0.4280146793311917    0.5018253372837842
    0.6462344673496156    0.6326375776821802    0.4745343533823903
    0.4069163002671477    0.6597887323453424    0.5092503900978919
    0.5740837840288369    0.4047119057353236    0.4911687043937724
    0.4259176886978223    0.5149994290175443    0.5062089639345836
    0.5551422911888457    0.6440959907546980    0.4549034035900305
    0.4847484764115104    0.3771739374435823    0.4567043858757791
    0.3366736058471915    0.5148807509594854    0.4750790171794679
    0.3933877553215122    0.3697086702998675    0.4357297925735462
    0.4935219619909928    0.5335054508116033    0.4438395857687982
    0.6516576557462511    0.5407893028170710    0.4466424124760572
    0.4639316765927061    0.6305689683366508    0.4412702532076110
    0.3749374566946955    0.5989788196772852    0.4461411538723374
    0.6285491518952208    0.4528331597240098    0.4331733755913124
    0.3607143866320082    0.4514633780914808    0.4109760946474722
    0.6132843747231480    0.6078399125106806    0.3920872342526934
    0.5380723570130189    0.4389722648917246    0.4096088917499636
    0.4496499920682680    0.4227418238831249    0.3829926512534016
    0.5813495577059667    0.5196555289929485    0.3880826231116880
    0.5230407069984195    0.5942470918095059    0.3781681324392639
    0.4313616401760752    0.5714528647107757    0.3753017112715634
    0.3421676809149728    0.5383502352689594    0.3852521884920069
    0.4954323750540848    0.5024558890840287    0.3548214664973094
    0.4057084678521855    0.4899269356020037    0.3367993919368899
