Au45 rank 9
1.0
   30.5233481531672339    0.0000000000000000    0.0000000000000000
    0.0000000000000000   30.5948874116914524    0.0000000000000000
    0.0000000000000000    0.0000000000000000   30.0464760007270897
  Au
  45
Direct
    0.3943538744213529    0.5520612768015104    0.6656684356622883
    0.4762778372860811    0.5313740668685232    0.6312195933902224
    0.4071350882740594    0.4731739981077510    0.6211888057980837
    0.4932617675473422    0.4427715471562101    0.6170011435412006
    0.4308333692068549    0.6043580288711061    0.6002948087321461
    0.5797741041559754    0.4191369705148119    0.6008130868257551
    0.5537356517286253    0.5069913701338828    0.5946067281945981
    0.3573511419338177    0.5416835739535507    0.5838402810882205
    0.4265092157675722    0.4015991739598334    0.5714168582199624
    0.5158206363026567    0.5866430228439599    0.5685399998148801
    0.5122270546870608    0.3693431360245318    0.5664417343876288
    0.6287920667916455    0.4768594678475230    0.5518011690500042
    0.3688430474298845    0.4635068755422517    0.5368488545041756
    0.5950886959958210    0.5624054601104006    0.5337648232113121
    0.3714161769982986    0.6150496013903074    0.5298586571892034
    0.4322685940801940    0.5424205212845821    0.5268313144505471
    0.4453865249753760    0.3261244096515232    0.5237346261335821
    0.4604306109663915    0.6404749678972349    0.5216061257253271
    0.5597112309694328    0.4289482997139780    0.5115659214514285
    0.5166756838495045    0.5144999980565929    0.5041937843369587
    0.6724396014387163    0.5342185986044035    0.4969933554969636
    0.3358977934303200    0.5367267328061002    0.4946914332291950
    0.3878497516619459    0.3908038136021503    0.4879470055273456
    0.5421800586023683    0.6201168667192357    0.4871201498716785
    0.4416780665923148    0.4705098880414793    0.4726008323061063
    0.4923955354606366    0.3835223650134489    0.4736318126849982
    0.3968318790237307    0.6730453041203285    0.4644204387391199
    0.6001360331278767    0.4937008491493998    0.4614886942212694
    0.3294556202678787    0.6144234373791555    0.4483577910429801
    0.3474316521011911    0.4608614986129137    0.4460908413482940
    0.6167505790143869    0.5836448382815553    0.4444007490762588
    0.4621093157348281    0.5564091979068378    0.4424793414188328
    0.4261179992045486    0.3304416046347818    0.4338638220341457
    0.4766480032382162    0.6504684348483939    0.4303180208518562
    0.5269552023415318    0.4534909598274675    0.4271751990465564
    0.3467276195035112    0.5398544721387412    0.4027452450634886
    0.3645584302121901    0.3859239556951732    0.3960888178420843
    0.4505373503823902    0.4132905658223662    0.3972215700769455
    0.5476765459961885    0.5372002594563006    0.3992646610862383
    0.5571349985125220    0.6271898749098056    0.3952425236653034
    0.4000042647710318    0.6168681627826723    0.3908579273214464
    0.4715972466820514    0.4965747957969533    0.3684082950033766
    0.4051340767924729    0.5479527091586277    0.3336240532025546
    0.3827768673891057    0.4664822516770565    0.3599869600805793
    0.4816671081934529    0.5916890660040240    0.3582820190854529
