Au45 rank 1
1.0
   29.5534960278534946    0.0000000000000000    0.0000000000000000
    0.0000000000000000   29.8172489788390926    0.0000000000000000
    0.0000000000000000    0.0000000000000000   30.9886515000371325
  Au
  45
Direct
    0.5685034291275399    0.5403327201175528    0.6461904158832171
    0.4823642378920820    0.5163703162214226    0.6673705358460504
    0.5431660662057726    0.4512739308740920    0.6372775175567846
    0.4507410432180187    0.4352132918098841    0.6324008836664452
    0.3920383815860917    0.4891572132422608    0.6768965160782514
    0.6170403654669504    0.4860034639500879    0.5897067044436796
    0.5832795485867258    0.5668526581596939    0.5620258882116713
    0.5091084386672234    0.3806872649548040    0.5884571729729874
    0.3606456278437085    0.4475867041080870    0.6026003512974998
    0.6029931084201507    0.3919863821167665    0.6020325337737117
    0.4184549272398757    0.3825308587301197    0.5655114574383524
    0.4191555641426070    0.5243051282161829    0.5995794280567045
    0.4750544942728815    0.4661863840810673    0.5440301052286329
    0.5173224676007314    0.6258873499476443    0.5281793117038279
    0.6630836777367251    0.3380699222500488    0.5596808729743743
    0.5703877378371157    0.3356116624059592    0.5364329452611708
    0.3374572809260376    0.4096747374811710    0.5257454680683227
    0.6561312662407748    0.4253292960478222    0.5298746446059402
    0.4975458000847768    0.5783883796448205    0.5999385824035434
    0.4804196100976829    0.3381342357341566    0.5131946193257938
    0.6279253497531038    0.5098546168850199    0.5031261171113878
    0.5619345111298888    0.4380740429886847    0.5274927765807405
    0.3845490517763723    0.4893899095898248    0.5216804228009679
    0.4977905875611086    0.4265310777474360    0.4646408559838930
    0.3900168291233033    0.3434115626473357    0.4893420043006939
    0.5888511648438395    0.5888099143946767    0.4762242199022897
    0.4497745184736725    0.5594079101447821    0.5246214314853500
    0.5314422886063507    0.5107193548648514    0.4796640965661398
    0.5432099720466502    0.6650744154941316    0.4511152112479230
    0.6386177342140577    0.3504541154170313    0.4753739812899289
    0.5461688164518722    0.3416056278028796    0.4504549415271004
    0.6355393872471775    0.4401157045240882    0.4436084641167618
    0.3923521621358620    0.4283946107544918    0.4533437765448298
    0.4876862905247486    0.5900188213126509    0.4488006181063613
    0.4347262831946723    0.5114409465101626    0.4494917098965943
    0.4527366308565779    0.3571295728839774    0.4253243342471336
    0.6079488913818588    0.5222442375445214    0.4154572650672918
    0.5601708002425330    0.6002488957809594    0.3898008627229324
    0.6139815540555071    0.3656880773130681    0.3931507152656296
    0.4498232578723039    0.4449715199901014    0.3859807659684490
    0.4972147405082883    0.5268292232160963    0.3846516203903463
    0.5250703353256527    0.3890985185781459    0.3759360320000075
    0.5979523426924567    0.4487081621018449    0.3611305038413837
    0.5731157050438137    0.5327981148653556    0.3321831743136502
    0.5137670485259969    0.4618979234268431    0.3225220034214758
