Au45 rank 15
1.0
   30.0941979832790807    0.0000000000000000    0.0000000000000000
    0.0000000000000000   29.3152514697944255    0.0000000000000000
    0.0000000000000000    0.0000000000000000   30.8728929847102762
  Au
  45
Direct
    0.5938846660218358    0.4696191312621555    0.6611220066070816
    0.5193097921682931    0.5229665262979782    0.6362376100258615
    0.4354581578615860    0.4767743006930106    0.6405916947570406
    0.5087048272419029    0.4400323116060334    0.6761314005689222
    0.5637927737786073    0.3894844444457907    0.6225953041038977
    0.4724643471165978    0.3956396714054807    0.6055525723068139
    0.3671635020878596    0.5157964543261704    0.5972607092060773
    0.4481426944316338    0.5582900428939822    0.5914588369940331
    0.6001745172314981    0.5278963234318926    0.5913085438042855
    0.6367278470808952    0.4416039892080633    0.5878838488581255
    0.5329506507143315    0.6003738225223576    0.5856030447959334
    0.3968039135955576    0.4315259518441675    0.5684930463971357
    0.6211994065435045    0.3523539135673213    0.5638202634476334
    0.5298698436854040    0.3518307085761269    0.5483782408690560
    0.5214879121221176    0.5212072487178144    0.5394987107083719
    0.4375844480965335    0.3589949731019560    0.5274416943986036
    0.3334495259469719    0.4821144569204595    0.5211389027799026
    0.3917277083793363    0.5548954560133645    0.5191917671707023
    0.4898943353907386    0.4357545991970918    0.5234893981382869
    0.4635945404274267    0.6128224709991367    0.5182754070609508
    0.5999073028473830    0.5833214150437108    0.5204712506747320
    0.5432543119442718    0.6571715536740407    0.5170543132883476
    0.6374602265158739    0.4976032562482648    0.5147195205373115
    0.6683466943336225    0.4095307773515153    0.5082391776168503
    0.3739651677658263    0.4118435694861369    0.4806609883335990
    0.4653510439593281    0.5068280429192398    0.4701338327308754
    0.5888307619705204    0.3740427237046819    0.4822161954206481
    0.5501370270362831    0.4743195974965732    0.4680880350539757
    0.5044284155561197    0.3469354488892676    0.4628827812555945
    0.3770420213827430    0.4993440587367361    0.4444592448275412
    0.5929366479431469    0.6343654166916444    0.4450537423114314
    0.4237922799544950    0.5856312011282691    0.4408270915476413
    0.4161822409768819    0.3415808480564197    0.4419614999386288
    0.5001097018645676    0.6401102828782093    0.4393403468201437
    0.6129278842163534    0.5426877394769437    0.4391207071021456
    0.6312991759213195    0.4474196310676207    0.4356244835978393
    0.4155672015061523    0.4267453985452393    0.4001015808999298
    0.5529852101538654    0.4023124027505879    0.4041483781080622
    0.4365398807872993    0.5154152723591593    0.3789303364477028
    0.5570264326267114    0.5863560736875915    0.3798027003990623
    0.4769073650878039    0.3586190336511612    0.3780341985756702
    0.5713321634374319    0.4904923616993068    0.3768220720454196
    0.4675814905127377    0.6031785568460090    0.3651065435811988
    0.4920182868695898    0.4446915313950129    0.3492573189168686
    0.5093497045073597    0.5312558946858734    0.3250202905469273
