Au45 rank 11
1.0
   29.0303666687934765    0.0000000000000000    0.0000000000000000
    0.0000000000000000   28.4174314396066379    0.0000000000000000
    0.0000000000000000    0.0000000000000000   31.1287875843147361
  Au
  45
Direct
    0.3959777414386278    0.5126183312043359    0.6530817831523545
    0.4738877856303577    0.5596632718087469    0.6688972248407623
    0.5556751373138100    0.6055219514216265    0.6783119109021498
    0.4823710603674520    0.4669239799312623    0.6358630061737295
    0.5560173585667387    0.5251158908460449    0.6286168699360213
    0.3981743777236189    0.4253545974251321    0.6182872020642064
    0.6081559801171696    0.6054548394401750    0.6050622198680695
    0.5550732003097917    0.4481724492964572    0.5765727786415498
    0.6175534366801251    0.5209728538902023    0.5576441079711351
    0.4221209736629162    0.5772828357886971    0.5919298383707940
    0.5095126010388992    0.6141047980693106    0.6006793111269886
    0.4758500665117196    0.3936279578669847    0.5779140109834005
    0.3661587428385246    0.5014953397478945    0.5678600914845207
    0.5618671424771771    0.6306346996251345    0.5277971456746139
    0.3943498539468918    0.4172622094796725    0.5302582392239109
    0.6551910056823267    0.6050793197146491    0.5292956226582016
    0.4549626862540563    0.5327452594070787    0.4717429505591486
    0.6115523657478970    0.4458936815399743    0.5034767285061197
    0.4895917008964227    0.4519583450587367    0.5031378912620894
    0.3800872361655236    0.5784019180031169    0.5133428658887518
    0.5185938594996377    0.5369097438932915    0.5401798534638209
    0.4553544484917565    0.3519477609252333    0.4994274670976839
    0.4660262042138097    0.6223189443144079    0.5221632937494842
    0.6392884079374246    0.5341205547598463    0.4706099091014361
    0.3651608857358705    0.4877049006479879    0.4787370936899368
    0.6005420597481703    0.3756327895774610    0.4431240153704042
    0.6128789850283541    0.6278926890967533    0.4531993496200121
    0.5472103038291132    0.3743688317203664    0.5155368898081881
    0.3451323427154258    0.5662188012844857    0.4298372604547290
    0.5177184465083675    0.6451278787487555    0.4501467489728148
    0.4253820618045492    0.6206098205207042    0.4414177725882786
    0.5445986914213256    0.5140812199670521    0.4547991446106434
    0.4223435110813101    0.4187141536184477    0.4416187259825159
    0.6143164771610546    0.4646099074213218    0.4113033281016916
    0.5060529093541244    0.3686157950571081    0.4288175911485855
    0.6010990242662393    0.5575043960217579    0.3907458122857842
    0.4044718895090753    0.4978342675943612    0.3954578026444596
    0.5635855826639599    0.3988126841738480    0.3643239169202565
    0.5736340643803723    0.6499905425122576    0.3764903906401612
    0.4778890732502188    0.4410776684977281    0.3722819674816507
    0.3967993709768612    0.5869384235201309    0.3596369297384151
    0.4826021306074261    0.6237625767718621    0.3694434426492956
    0.5553941335233216    0.4888465856031397    0.3400989869944679
    0.4697790266832764    0.5308673806321735    0.3370537061511380
    0.5492893108622866    0.5811269988542332    0.3187531219498491
