Au45 rank 20
1.0
   29.4899305413157222    0.0000000000000000    0.0000000000000000
    0.0000000000000000   29.4344311672715833    0.0000000000000000
    0.0000000000000000    0.0000000000000000   29.4784117656030347
  Au
  45
Direct
    0.6023556341915020    0.4648804634298516    0.6571128868524744
    0.5439823935286908    0.5306524972279150    0.6233650797360119
    0.4518430196667079    0.5138017028651791    0.6193370877007409
    0.5119654093314434    0.4507259192202309    0.6603185785576838
    0.4862789788778153    0.3636911869288288    0.6368429655868731
    0.4216490878581649    0.4307877788612613    0.6481265538713342
    0.5743287727984678    0.3841116197723432    0.6177443122895619
    0.6557532524040041    0.4246833985561799    0.5911086845177195
    0.4845268863183398    0.5976018537936116    0.5830652699765358
    0.6261155265989227    0.5123170564460677    0.5792328839145838
    0.3768705312301677    0.4671868600175956    0.5774778500255023
    0.5794556763460171    0.5908668497901401    0.5622919303280812
    0.4295359268325176    0.3875722056065013    0.5651782668510518
    0.5172437506505039    0.3510426029254699    0.5501298515125436
    0.5028698602354443    0.5196805782496580    0.5354599067504094
    0.4100732009028479    0.5511998708155680    0.5435226395553034
    0.5264779353730087    0.6601546769644590    0.5293736140929046
    0.6020578689253580    0.3844424547399977    0.5272255393321252
    0.6624271928554336    0.4595454382660412    0.5057155796146667
    0.4960385613298772    0.4323665348091050    0.5057760744945043
    0.6384166543680275    0.5543082391443698    0.4973894559279957
    0.3398833443753301    0.5060054763093308    0.5029750961311011
    0.6106840237713371    0.6441351448032786    0.4910666700654419
    0.3833778575158693    0.4220198495157628    0.4924363522286207
    0.4623777284727236    0.6079910674239499    0.4873813585003260
    0.5734570499303356    0.4816095557166722    0.4896841750851898
    0.4493438357369510    0.3556632266894218    0.4795860598567857
    0.5450400305266955    0.3512422952180911    0.4612209006037917
    0.4961073596226773    0.5032894020754026    0.4439961596704480
    0.4021430749654955    0.5486882418366450    0.4477379572151848
    0.5341876286681237    0.6427515766635599    0.4365077175212610
    0.6163700747185649    0.4108593524329064    0.4365661361048097
    0.6407862276947932    0.5005614262265351    0.4205291791780068
    0.6198995950034561    0.5943544620187725    0.4147587416597683
    0.3565550342474318    0.4729492641093021    0.4174058832505325
    0.4168261370986077    0.4052375000256694    0.4033149159784461
    0.4727543094047791    0.5826008881464206    0.3973458934280089
    0.4816518627269456    0.3411253036047108    0.3934146948949288
    0.4355123478769396    0.4951027281090962    0.3732200770354192
    0.5693538147715105    0.3639090847551190    0.3717904226804701
    0.4995253185960125    0.4272001825727746    0.3584911904597254
    0.5928205137369901    0.4504939852461141    0.3518351981963308
    0.5506897492888105    0.6069026086466150    0.3529262318086292
    0.5229806163665924    0.5165522004993335    0.3485575445274676
    0.6137908522852292    0.5386222858592092    0.3401811053425920
