Au45 rank 17
1.0
   30.7397480811196502    0.0000000000000000    0.0000000000000000
    0.0000000000000000   29.7081005651630861    0.0000000000000000
    0.0000000000000000    0.0000000000000000   29.0033929602445966
  Au
  45
Direct
    0.5074119415081700    0.5778217224984274    0.6381853774462483
    0.4610952180438049    0.4976199414993541    0.6392048167073245
    0.4196213807736386    0.5789488255678439    0.6567543557786175
    0.5952227387611509    0.5743167241693565    0.6226413390034437
    0.5507571865534463    0.4950793112624725    0.6317221856557232
    0.3689458363975940    0.5042867907099309    0.6356362960056613
    0.3846983977033724    0.5702246753242666    0.5694750785851991
    0.4130977722885948    0.4294795012782049    0.5984666439452089
    0.6287055134245516    0.4991681658885485    0.5800710764724835
    0.5430017174546996    0.6232395940108637    0.5630455743411026
    0.5017877559260498    0.4262617350950298    0.5956720862720696
    0.3248794950959938    0.4277719476645536    0.6008822958357215
    0.4552031615479362    0.6290874302761316    0.5831619039637220
    0.5901486696013848    0.4179422555369879    0.5958403982428265
    0.6155475731028882    0.5774602552831087    0.5299669259819733
    0.3581043851440719    0.4876541444717667    0.5386327611765046
    0.4578667966410231    0.4963340580646211    0.5373436618773657
    0.4544806746601416    0.3912332157288886    0.5228463012295362
    0.5454264389903469    0.3952027212419610    0.5190548539223963
    0.3625335956513586    0.3930537366801115    0.5218286568800332
    0.6242652728540466    0.4374449203675617    0.5073901439109137
    0.6734857881442002    0.5137776980472057    0.4986901271466611
    0.4866749582932582    0.6570244300558478    0.4977380982974077
    0.4005750086989320    0.6365406484284684    0.5067729735248955
    0.5683488299096231    0.6266769618427324    0.4702714060872586
    0.5271220280613401    0.5455011564481855    0.5057695446349230
    0.3956636170919642    0.5473453556507201    0.4779319521475908
    0.5062794176101767    0.4669439402896584    0.4631572597195818
    0.4009545227542034    0.4561883672190136    0.4605071014969372
    0.4998579642608150    0.3669157830321673    0.4446388639874114
    0.4056852066801435    0.3628907094067673    0.4458741894035120
    0.6338042203316683    0.5700796499890497    0.4367786182488874
    0.5789876658765178    0.4104321144347586    0.4310420605503576
    0.6407998280336509    0.4773402226029626    0.4195700404472661
    0.4445533079169159    0.6060103381124243    0.4285427408856057
    0.5121080759314823    0.6619968970228246    0.4061625296741678
    0.4455906816741445    0.5176432407335735    0.4050292090318434
    0.5879877409451760    0.6220767779910096    0.3757834761301773
    0.4502483741990386    0.4266787636313454    0.3874028154797091
    0.5116640865472045    0.5724935568446031    0.3735476730135943
    0.4548740793407197    0.3344315450692218    0.3712141576790908
    0.5944122903214167    0.5320625088941124    0.3593582090191645
    0.5190095826127711    0.4814675483402017    0.3622106936905891
    0.5281911994086826    0.3871652553447621    0.3531327193954041
    0.5997410489671866    0.4410778856443137    0.3431131394158769
