Au45 rank 5
1.0
   30.8842282186639281    0.0000000000000000    0.0000000000000000
    0.0000000000000000   30.4741329715450817    0.0000000000000000
    0.0000000000000000    0.0000000000000000   29.6202985302921746
  Au
  45
Direct
    0.4468198665203351    0.4185966697321469    0.6622390449379230
    0.3932897988136064    0.4797773868853363    0.6213247695869670
    0.4842717010556445    0.4854801375541550    0.6138918436818528
    0.4328647469482036    0.5533194017295153    0.5779203920149134
    0.5058600333058066    0.3951718698200963    0.5969929139921120
    0.4515321827668691    0.4756183357447091    0.5220206506703436
    0.4175007844188490    0.4036025350155615    0.5746344874838962
    0.5189046975411882    0.5468825134662858    0.5557483574842970
    0.5576789512123382    0.4641765405660629    0.5663390270803793
    0.4678696539005286    0.6161848517572281    0.5206743962958146
    0.3438396412932250    0.5412245336630925    0.5801636497010849
    0.5594438382831195    0.3834165451311313    0.5237132173846992
    0.3584214669077146    0.4626136032484182    0.5348774285920165
    0.5989009570664862    0.5294699494108981    0.5184882743641538
    0.4727222688264510    0.3573771885360715    0.5180697410871564
    0.4716694814712256    0.5430309369975191    0.4622014515483159
    0.6266162364958759    0.4400113412729413    0.5050188191399955
    0.6781145859609863    0.5099646755484475    0.4802269604443373
    0.3239207681411803    0.5347356554840265    0.4898638057041720
    0.3973210398325096    0.3964968810229110    0.4850089445542612
    0.5296703684682768    0.4725278720241609    0.4735275222893358
    0.3794657587877482    0.6017923240541790    0.5218147323546772
    0.5509586805584487    0.6007380301636952    0.4896121335539634
    0.5331937579135583    0.3282649069091036    0.4553949806435452
    0.5020442864691743    0.6749218328027843    0.4556338431387813
    0.6274410460413791    0.5765930009717661    0.4417903396450463
    0.5809126438918446    0.4017130733810444    0.4338308853486317
    0.3480692320743720    0.4603709159743932    0.4425301436846983
    0.4492361054852733    0.4599701846406750    0.4315529726046059
    0.4486598073108276    0.3438699089645395    0.4305577203646280
    0.4177689624217255    0.6497704029107819    0.4493769013276232
    0.6102827573194772    0.4880478268241111    0.4245031481046890
    0.5723403465776420    0.6404487522772265    0.4101566461558849
    0.3229802229033265    0.5357777855340141    0.3971312008370537
    0.3905788275674440    0.3998661221131398    0.3896454486419266
    0.3375081143845569    0.6131307300048729    0.4420047461557816
    0.4867870271915373    0.6087418595082443    0.3960419433857641
    0.5188225363143676    0.3745682363738801    0.3749793229408545
    0.5563849494580534    0.5515460435424148    0.3891213969897950
    0.5401586756935851    0.4634784880661055    0.3745255875838617
    0.4048256646078184    0.5745306843559524    0.3932150520549403
    0.3899631437168469    0.4890960791020011    0.3616240020791200
    0.4742863716922399    0.5247483267087194    0.3608887285541040
    0.4620053733062387    0.4370977366946144    0.3383115489935212
    0.4427766293314450    0.3482861998588690    0.3359840901971422
