Au
 1.0000000000000000
    29.6633937850000002    0.0000000000000000    0.0000000000000000
     0.0000000000000000   29.3603742069999996    0.0000000000000000
     0.0000000000000000    0.0000000000000000   30.8469181440000000
 Au 
  45
Cartesian
 13.5334599999999998 16.1356800000000007 20.8386299999999984
 13.0789700000000000 13.5407700000000002 20.2014899999999997
 15.7016500000000008 14.6278799999999993 20.0606699999999982
 15.2846100000000007 11.8849699999999991 19.8205300000000015
 12.7117100000000001 10.9246999999999996 19.3406699999999994
 11.3133300000000006 15.5209899999999994 19.3171399999999984
 17.6630299999999991 13.0429300000000001 18.9921299999999995
 15.4146300000000007 17.2591199999999994 19.1690100000000001
 12.6815200000000008 18.0222400000000000 19.1016100000000009
 17.2400500000000001 10.3255099999999995 18.6667099999999984
 11.0819899999999993 12.9373299999999993 18.3745300000000000
 17.6924199999999985 15.8274000000000008 18.4538100000000007
 15.4844399999999993 14.9522200000000005 17.0419699999999992
 10.2610600000000005 17.5620100000000008 17.8345599999999997
 14.6823899999999998 10.0321099999999994 17.5915600000000012
 19.5943900000000006 14.1557399999999998 17.3891600000000004
 14.5939899999999998 19.3325199999999988 17.5609700000000011
 10.1230399999999996 15.0264100000000003 16.8286400000000000
 19.0678799999999988 11.5005600000000001 17.0295899999999989
 12.1239899999999992 10.7523099999999996 16.5847200000000008
 13.9523799999999998 12.7708300000000001 17.3740699999999997
 16.3950400000000016 17.5474099999999993 16.5293999999999990
 12.0061599999999995 19.3384399999999985 16.7131599999999985
 16.8901499999999984  9.9978300000000004 15.9650800000000004
 10.0770000000000000 12.4565599999999996 15.8469400000000000
 12.9530899999999995 14.9004600000000007 15.9877800000000008
 18.0091600000000014 15.4907199999999996 15.6054499999999994
 19.5157099999999986 13.2441800000000001 14.8082600000000006
 15.0458099999999995 13.3483499999999999 14.7805900000000001
 19.1836300000000008 10.4944699999999997 14.5147800000000000
 14.3666800000000006 10.5663900000000002 14.9011899999999997
 11.2691900000000000 17.0764400000000016 15.2768599999999992
 13.9396199999999997 18.0125899999999994 15.2023600000000005
 16.6832899999999995 11.0613600000000005 13.4462399999999995
 12.0655099999999997 11.9458300000000008 14.0561900000000009
 15.7284400000000009 16.2043800000000005 14.1774299999999993
 17.4195899999999995 14.1723999999999997 13.2462999999999997
 19.0030800000000006 12.1193700000000000 12.2879799999999992
 10.8358500000000006 14.5175999999999998 14.1282599999999992
 13.0503000000000000 16.1254300000000015 13.3524399999999996
 14.2347699999999993 11.8061500000000006 12.4196399999999993
 14.9725300000000008 14.6525200000000009 12.0398099999999992
 16.6093699999999984 12.5251500000000000 11.0424100000000003
 12.2874199999999991 13.8305799999999994 11.9304400000000008
 14.1236599999999992 13.0515600000000003  9.9655299999999993
