Au45 rank 7
1.0
   30.2333776389161741    0.0000000000000000    0.0000000000000000
    0.0000000000000000   29.3721689104057404    0.0000000000000000
    0.0000000000000000    0.0000000000000000   29.0389797657159647
  Au
  45
Direct
    0.5240076488421408    0.4935363039590757    0.6481521758542466
    0.4436380983533812    0.5350262792688829    0.6282197448519551
    0.5188840243002655    0.5713298043130420    0.5931006469020207
    0.6004434390832356    0.4386564022844867    0.6420859625694229
    0.4443023192836431    0.4459177339720166    0.6646373346340120
    0.3669612027407686    0.4973902465332012    0.6603243484554752
    0.5971820342360129    0.5224051127687424    0.6016713867625206
    0.5209041819070425    0.3981685612817573    0.6608836910658769
    0.3600796449601585    0.5460473185040814    0.5788857723302626
    0.5946701676318027    0.6031093189926391    0.5528049614539995
    0.4362341759257933    0.5963282553788147    0.5560191934236129
    0.5625698300899232    0.3854076214220108    0.5749740373157440
    0.4714157366391702    0.4012712759776773    0.5816539463036897
    0.6315747238901310    0.4452783202006805    0.5530268436314273
    0.4710588375865092    0.5032719549788481    0.5365304667745725
    0.3983331417108666    0.4570977078751564    0.5809195081245415
    0.6545171258172303    0.5321818605607029    0.5281838459693524
    0.4305178573749661    0.4217222757951664    0.4984862390947941
    0.5063292615191998    0.3674191084155383    0.5006164824113352
    0.5479345947591443    0.4581131849860506    0.5090342916136668
    0.5988187099691499    0.3820578475731541    0.4852096035565872
    0.5120002873509976    0.6341073703556068    0.5200284096935517
    0.4893625334718734    0.4859359359826990    0.4408393193425689
    0.6669972438447876    0.6226016860156375    0.5006512782709944
    0.6381008170891113    0.4652204705832504    0.4609919999933922
    0.3654951586626382    0.5875699130358680    0.4940629078516350
    0.3714073972314191    0.4942712682701398    0.4988078555975547
    0.5383828552738175    0.5478530777283414    0.4888354204174741
    0.4317748285090610    0.6496051514448365    0.4769324105109545
    0.5844998352765478    0.6260110067792822    0.4575112951862444
    0.4014710378047346    0.4602860015692924    0.4160964632800727
    0.5438461078431835    0.3405773103908034    0.4191121834768314
    0.4672402215581760    0.3935642535970355    0.4163359483935562
    0.6464455154229355    0.5579386464728621    0.4359545227332840
    0.5968384312309025    0.4112126256277844    0.3941417937805774
    0.4992978277718848    0.6148113240764026    0.4231456358456703
    0.3416521633472476    0.5339766755125845    0.4190187088737578
    0.4124154023482718    0.5906333359047355    0.4064832577646770
    0.5651125779404875    0.5586968691194755    0.3899942033709139
    0.3935347945591792    0.5197232660304723    0.3420425309491065
    0.6296161959000657    0.4941294145329754    0.3709920132944639
    0.4555995194564198    0.4522126273044047    0.3372676538050113
    0.5215828254588806    0.3875820171062520    0.3402585307162500
    0.4793185190811163    0.5441404243964194    0.3618692805560412
    0.5433052085598299    0.4778674008197465    0.3486908013102921
