Au45 rank 13
1.0
   30.4309258987492441    0.0000000000000000    0.0000000000000000
    0.0000000000000000   29.2543193013330765    0.0000000000000000
    0.0000000000000000    0.0000000000000000   30.0507061712417283
  Au
  45
Direct
    0.3873634478367725    0.4907166475164477    0.6650372384436826
    0.4718857538559926    0.5187997003620486    0.6609954833995364
    0.5554515222783546    0.5502945421952136    0.6485292283512843
    0.4028187046508789    0.5716368571906862    0.6235271835423116
    0.4507567000748603    0.4286341171215458    0.6346191164899340
    0.4888762942888527    0.6009593308700981    0.6145157184981771
    0.5355298442002687    0.4598881394010998    0.6251456951471522
    0.3595068000414778    0.4161412383400010    0.6200041030144501
    0.6142888252842176    0.5050792654327367    0.5982818327756934
    0.4226962246144710    0.6522908122192453    0.5786964693515603
    0.3553281488032898    0.5037010527491231    0.5798709553876509
    0.5527370109161992    0.5646875900667581    0.5573160931009847
    0.3304920199662227    0.3411844939708716    0.5756404330425521
    0.4200811926886463    0.3574098314987323    0.5772395237982161
    0.5057738241569402    0.3869190914525018    0.5717522070991671
    0.5894901048781612    0.4213457958576355    0.5593746221602570
    0.6721808253278839    0.4590489821394867    0.5456148766683871
    0.3736471495571378    0.5845631070480366    0.5377377107195451
    0.4841079164748464    0.6126195084907631    0.5210297025206723
    0.4283541085254339    0.4441966211709992    0.5390735825639622
    0.3333883223278587    0.4264583654181671    0.5300449460208499
    0.5157660689735615    0.4761876060700779    0.5289769473330088
    0.6039355953104282    0.5080723560399355    0.5043305643550500
    0.4115750300684757    0.6581476709882138    0.4866622289917162
    0.4425295854111160    0.5244117555569912    0.4987316319365398
    0.3451442355742737    0.5088899538020748    0.4882913669411234
    0.3714099201326325    0.3480838621741011    0.4948625896438238
    0.4642984505757249    0.3490151535476252    0.4971061213008918
    0.5500052070669299    0.3790651737408615    0.4885335496186469
    0.5322599807291915    0.5536304446453718    0.4668032262469541
    0.6324635946003060    0.4217262583408523    0.4732941937716418
    0.3616413702666995    0.5923634586167705    0.4470026896787970
    0.4722650447123096    0.4377806370103012    0.4558057669027670
    0.4540938724535327    0.5921857411110103    0.4334652151285827
    0.3678146996911951    0.4301004305203400    0.4444179460933829
    0.5646573154791458    0.4733247019034615    0.4296045394214063
    0.4150903591732024    0.3532199743279477    0.4167691066381122
    0.5067016076008874    0.3439446053762545    0.4157980993164234
    0.3947453093037866    0.5153007841170555    0.4099686072847350
    0.5915340641082909    0.3846545412896755    0.4038813756219135
    0.4253156648054970    0.4385680934485567    0.3711575472854275
    0.5165302412510800    0.4312111841524659    0.3635728018504327
    0.4589733799722568    0.3588621789633984    0.3369748666771230
    0.5491344374915859    0.3492292269438750    0.3327991823990330
    0.4860795753761141    0.5130246450379078    0.3965434670010528
