Au45 rank 2
1.0
   30.2378985690088093    0.0000000000000000    0.0000000000000000
    0.0000000000000000   29.6031168847367994    0.0000000000000000
    0.0000000000000000    0.0000000000000000   29.9242325128836946
  Au
  45
Direct
    0.5165332933475477    0.6361171071187557    0.6666023588220570
    0.5526913095254783    0.5527269102923438    0.6384735902309308
    0.4621518204533399    0.5618170291203072    0.6498229987017133
    0.6032950266027191    0.6317515971018145    0.6402399727839020
    0.3794298547743889    0.5947857651343936    0.6273236111729513
    0.4955929534943585    0.4831100528263548    0.6118067187158831
    0.4515858701356314    0.6458971274982778    0.6011174067168527
    0.4082957873089001    0.5092366497110796    0.5968371761979606
    0.6382159983136633    0.5573186135893515    0.5995858346206812
    0.5858261857004744    0.4784687645271073    0.5942026868513149
    0.5395403371899714    0.6576816276348605    0.5776224596195020
    0.3323226644955463    0.5503528642139484    0.5627364543576564
    0.5292719962985283    0.4089983419859118    0.5671627356640593
    0.4988068490753350    0.5703880659245987    0.5597164947321075
    0.4424316288106874    0.4348447476410935    0.5533976560508280
    0.6694056190487704    0.4825539086532389    0.5560939630045419
    0.6280346760914924    0.6380656279080056    0.5527437522553137
    0.3950286581312709    0.6142372864026449    0.5361118201393614
    0.6188611646673917    0.4086593231067049    0.5385657438643338
    0.3622069007270090    0.4738066629709384    0.5210322911205797
    0.5639002108871159    0.3379566715340810    0.5182771180655178
    0.5266043685899623    0.4933221198066848    0.5165588206866603
    0.4738476835779858    0.6562127560054805    0.5114729252426332
    0.6626905463245379    0.5623501528281875    0.5099380258169871
    0.4411884132481341    0.5266177799703294    0.4987234093039665
    0.4798354684744817    0.3667371054195300    0.4981992899198607
    0.5629523575824227    0.6604392669015321    0.4886958634038948
    0.3990557402762725    0.4011833725541711    0.4782668310659398
    0.3520280728128736    0.5559078607925924    0.4735469254943234
    0.6162932394430979    0.4845457494955691    0.4803477999899620
    0.5162433454065108    0.5744463897600292    0.4694790543696693
    0.5559435937778070    0.4145078147842582    0.4669642043357301
    0.6494649210959123    0.6414098449303907    0.4639947404012512
    0.4193098167420206    0.6181323733821170    0.4473394276139665
    0.4726004529520403    0.4417295038922905    0.4395295104826222
    0.3854002220069008    0.4788543554264808    0.4300918101509785
    0.6062179310911324    0.5643344766638358    0.4341676727667278
    0.4979351490833425    0.6587677785715614    0.4224219118834051
    0.5468450426156062    0.4934432251846735    0.4191101915200030
    0.4625918092574718    0.5213510387406121    0.3934745488826025
    0.5884470458027239    0.6512760219756838    0.3979621216351131
    0.3791158989164775    0.5600983709513935    0.3863088460895009
    0.5359217625950871    0.5740657066054194    0.3744952123108811
    0.4494143342080262    0.6091883877637285    0.3577800134073359
    0.5239814994822781    0.6563258863100065    0.3337902502903046
