Au45 rank 18
1.0
   28.8787537098631759    0.0000000000000000    0.0000000000000000
    0.0000000000000000   30.2482815186124583    0.0000000000000000
    0.0000000000000000    0.0000000000000000   30.1555495849684903
  Au
  45
Direct
    0.5352724401301935    0.5813039476836483    0.6566447168870569
    0.4556902402300644    0.6296560515936337    0.6697162671597024
    0.4452585271852079    0.5538451323541526    0.6224362942435783
    0.5221065872688271    0.4981925957068718    0.6148954386487997
    0.6091511579987854    0.5277464790502577    0.6348780829869083
    0.3974852077113898    0.6304664687146727    0.5945334945685833
    0.4944052287639060    0.6331086250886068    0.5867775413818217
    0.4359630418490483    0.4758817941497336    0.5771717024628245
    0.5780796347963242    0.5883291958926365    0.5727280794409443
    0.5128083009145739    0.4221112461834870    0.5674262730195323
    0.5975536812745158    0.4625719812337303    0.5674541411386964
    0.3749034822143369    0.5453628845604601    0.5596566101812894
    0.6536845543792698    0.5329611702206994    0.5523230333170778
    0.4930627195018585    0.5488392951821478    0.5371999488863826
    0.4296578148298744    0.3988743039684937    0.5307363308255587
    0.3599633285269428    0.4631775291806166    0.5205396063323879
    0.5099822328261943    0.3468664933342729    0.5171307462454517
    0.3498780036472137    0.6227509060732830    0.5169313109530288
    0.4401068158056110    0.6545735531142566    0.5133275730195317
    0.5340039333886063    0.6332430856942596    0.5041296665544950
    0.5725378193298988    0.4124852935524854    0.4947909920747534
    0.6053295336596409    0.5751965940255512    0.4856443572256513
    0.4380539915832199    0.4982743097576626    0.4801267660377083
    0.5314272701612801    0.4956465539830937    0.4710069317138135
    0.6281626458720762    0.4848137316792926    0.4785440890710553
    0.3579798213624350    0.3861434966951203    0.4705275765114439
    0.3512666358870088    0.5445976261463121    0.4692733973897449
    0.4361210703036273    0.3339416606356354    0.4643800184928682
    0.4833142516162933    0.5701585431132645    0.4464181287192106
    0.3976839965302667    0.6185547826571373    0.4374929861536870
    0.5114978746595236    0.3810275998959887    0.4302266473579001
    0.4820026479798999    0.6670403070704441    0.4325673611743615
    0.3649864839223598    0.4652291161420427    0.4252887432788902
    0.5650447568755240    0.6198304630081374    0.4176952827512112
    0.5767379626301987    0.4437665549252350    0.4072952085137722
    0.5980675149816587    0.5340912144971124    0.4036621012810671
    0.4206401619948505    0.3924242648414326    0.3978763281522933
    0.3982143163311855    0.5407617594714246    0.3877247204010768
    0.4569851913889904    0.6065683005531557    0.3627400560143053
    0.4954264893814908    0.4344578605333913    0.3586131951227176
    0.5251801392368537    0.6677280351378240    0.3493588933596677
    0.4051579941429974    0.4612466966063251    0.3416195899315180
    0.5483375256061983    0.5799600562434254    0.3360306425524708
    0.4730656370252638    0.5220084992435370    0.3318358977814090
    0.5632813748122910    0.4909139775059640    0.3298915410268733
