Au
 1.0000000000000000
    29.5534960280000014    0.0000000000000000    0.0000000000000000
     0.0000000000000000   29.8172489789999986    0.0000000000000000
     0.0000000000000000    0.0000000000000000   30.9886514999999996
 Au 
  45
Cartesian
 16.8043100000000010 16.1115199999999987 20.0250400000000006
 14.2571100000000008 15.4024599999999996 20.6794900000000013
 16.0507300000000015 13.4584200000000003 19.7462599999999995
 13.3197200000000002 12.9795599999999993 19.5958000000000006
 11.5891300000000008 14.5918200000000002 20.9761899999999990
 18.2356499999999997 14.4899000000000004 18.2740299999999998
 17.2449599999999990 16.9015099999999983 17.4160700000000013
 15.0428300000000004 11.3519600000000001 18.2363500000000016
 10.6588600000000007 13.3498500000000000 18.6740600000000008
 17.8182299999999998 11.6891499999999997 18.6551100000000005
 12.3640699999999999 11.4072499999999994 17.5237100000000012
 12.3892299999999995 15.6362500000000004 18.5787699999999987
 14.0461500000000008 13.9014900000000008 16.8621400000000001
 15.2925100000000000 18.6623100000000015 16.3658900000000003
 19.5943700000000014 10.0824499999999997 17.3451300000000010
 16.8520700000000012 10.0019700000000000 16.6294900000000005
  9.9719200000000008 12.2164400000000004 16.2931799999999996
 19.3945299999999996 12.6849600000000002 16.4216300000000004
 14.7092299999999998 17.2476799999999990 18.5890300000000011
 14.1939100000000007 10.0804799999999997 15.9056200000000008
 18.5587300000000006 15.2017699999999998 15.5894399999999997
 16.6107900000000015 13.0589499999999994 16.3410100000000007
 11.3686100000000003 14.5911799999999996 16.1662500000000016
 14.7053899999999995 12.7182700000000004 14.4014199999999999
 11.5240200000000002 10.2409099999999995 15.1620299999999997
 17.4037800000000011 17.5551800000000000 14.7562499999999996
 13.2963500000000003 16.6777699999999989 16.2562399999999982
 15.7061299999999999 15.2272300000000005 14.8628599999999995
 16.0541300000000007 19.8284300000000009 13.9764199999999992
 18.8665599999999998 10.4503199999999996 14.7364499999999996
 16.1376199999999983 10.1848899999999993 13.9627599999999994
 18.7795799999999993 13.1214999999999993 13.7479700000000005
 11.5934100000000004 12.7732100000000006 14.0481099999999994
 14.4133200000000006 17.5919600000000003 13.9070099999999996
 12.8475400000000004 15.2488700000000001 13.9262800000000002
 13.3785100000000003 10.6469799999999992 13.1792800000000003
 17.9691599999999987 15.5715699999999995 12.8725400000000008
 16.5566600000000008 17.8961900000000007 12.0783900000000006
 18.1432700000000011 10.9020799999999998 12.1866000000000003
 13.2929499999999994 13.2648700000000002 11.9601799999999994
 14.6933199999999999 15.7090399999999999 11.9181799999999996
 15.5170800000000000 11.6007300000000004 11.6522000000000006
 17.6707800000000006 13.3771500000000003 11.1912400000000005
 16.9373700000000014 15.8849800000000005 10.2946100000000005
 15.1832100000000008 13.7707599999999992  9.9958200000000001
