Au41 rank 5
1.0
   30.5011774441287926    0.0000000000000000    0.0000000000000000
    0.0000000000000000   29.2192096378036865    0.0000000000000000
    0.0000000000000000    0.0000000000000000   27.6642972528581197
  Au
  41
Direct
    0.4684227760027987    0.5530482591743062    0.6174735299105836
    0.5553218783258956    0.5358361953992922    0.6398677489001260
    0.5426605389569660    0.4428289936764573    0.6290000388982880
    0.4533676445986673    0.4587696580507316    0.6134036560797789
    0.6231123166021453    0.5771101963824820    0.5916409682768271
    0.6200891429411145    0.4826024509915324    0.5961011756404833
    0.5364960441951308    0.6028332241832320    0.5715043285250070
    0.4125338759661380    0.5176156286950255    0.5472247773206634
    0.4505679594995219    0.6038312707256461    0.5363993778051880
    0.4967384886395549    0.3888465252130017    0.5639772668611901
    0.4153433235131375    0.4224913406712024    0.5317517937009897
    0.5153264839069122    0.4982491341357778    0.5491418862458535
    0.5871022713641495    0.4034974240312108    0.5512716695874124
    0.6682272623433559    0.4407980222114868    0.5287391145533349
    0.6581329304125649    0.5340720188702806    0.5144276361667643
    0.6046868727368919    0.6111420673690831    0.5022037598742040
    0.3697641781777460    0.4786204378093649    0.4685995127715217
    0.4481689203766074    0.3418353596296770    0.4951239218527180
    0.5176010616196813    0.6459992206241167    0.4848461143348145
    0.3971766185184590    0.5694481686008520    0.4640128676875394
    0.4626555500409657    0.4962825990393753    0.4614463310991440
    0.5442436943035009    0.4554281352162797    0.4682951669743439
    0.5372003780389083    0.3594620968163131    0.4811018286834224
    0.5375527626890866    0.5507861933685750    0.4711607582939272
    0.6197963500000689    0.4006482011898256    0.4557585552625277
    0.6724319689904185    0.4760201359754959    0.4360977754597682
    0.5737249611245133    0.6300908409233988    0.4095121966110725
    0.4316006537449830    0.6579082415322832    0.4564986094758330
    0.3262716073654199    0.4427993293727902    0.3904879827175005
    0.6251736569392613    0.5546147288437329    0.4221889227945654
    0.3822439563144290    0.3857580880278336    0.4441715624398417
    0.3566627043653688    0.5307685549421826    0.3810099576037888
    0.4870065511719908    0.6240060229690780    0.3879789455332299
    0.5958326773160270    0.4733303895855649    0.3821888065250611
    0.4706770131512086    0.3874048028567554    0.4130538519772774
    0.5429604555924843    0.5497613605163766    0.3669886447056589
    0.5568431287585833    0.3881649626242906    0.3860618053570982
    0.4150615389960236    0.4540102724832130    0.3788448222758556
    0.5048665749278054    0.4645462350437203    0.3671758589995829
    0.3940825882954626    0.6153004508251239    0.3765070901704916
    0.4504256789181429    0.5407998061084710    0.3660968488600262
