Au41 rank 17
1.0
   29.6055252316907627    0.0000000000000000    0.0000000000000000
    0.0000000000000000   30.1832879571166899    0.0000000000000000
    0.0000000000000000    0.0000000000000000   29.2306437658465583
  Au
  41
Direct
    0.5356004910505637    0.5029764537448072    0.6565344156338272
    0.5080674167168990    0.4190818963109213    0.6360288174907972
    0.4457654088550301    0.4879447279177155    0.6456761326798115
    0.4165937887632045    0.4016438788690376    0.6351875217035563
    0.4876053309199130    0.5688802954451043    0.6118461079758877
    0.5839928267416095    0.4576777265530697    0.5908838771264331
    0.5750959892120781    0.5494898221197398    0.5871197140797648
    0.5636569514192274    0.3688614045441383    0.5828278125283536
    0.3960051188582829    0.5547730670102894    0.6089773767452969
    0.4720627684020470    0.3555063277851076    0.5769194491132524
    0.3725666058922013    0.4688060700265962    0.5898695549594348
    0.5287338522863417    0.6166944020288093    0.5439462205567911
    0.6188232503440264    0.5964492974728034    0.5224075890813367
    0.6220622485367958    0.5041678884234421    0.5202701197157540
    0.4374760470004229    0.6002151303476089    0.5390383586697084
    0.5964451764544825    0.4172277600631963    0.5082467387904777
    0.3873063292339476    0.3865203476560724    0.5477594274586346
    0.5263351867764707    0.3563998271586608    0.4979513923278840
    0.3741078056679590    0.5342681000206037    0.5200362778385416
    0.4364980566339556    0.3305067056781340    0.4944143454449878
    0.3384951728911763    0.4512556203212668    0.5048397940530248
    0.6628091321876420    0.6425975406570287    0.4541469696625999
    0.5714446036895842    0.6561309417586055    0.4697112072934399
    0.4097234914624556    0.5823108471459171    0.4505725180527949
    0.4805103876195708    0.6403904512877105    0.4663030749301460
    0.3994051031725311    0.4049018961851764    0.4534706547167291
    0.6470587429260847    0.5538861442542692    0.4426127692534194
    0.3869421793851978    0.4948340065079368    0.4365439715772360
    0.6220522763642558    0.4677216909948325    0.4338731644618152
    0.4452544602271201    0.6286765099895465    0.3782806582163229
    0.4766904931423760    0.3664921795469625    0.4188568442983589
    0.5669123653231856    0.3939006140495979    0.4231450098720723
    0.6040456373771812    0.6175411758757883    0.3864383005544788
    0.4441649647863396    0.5373503910531040    0.3757256508290316
    0.4436259064710633    0.4466434615369758    0.3819163477098619
    0.5274844055484823    0.6679236541090984    0.3877377053161251
    0.6002329658279107    0.5302728423248790    0.3647649095581786
    0.5237195397402944    0.5821524139030434    0.3540781100248364
    0.5171699053225041    0.4930532071517152    0.3406759094256641
    0.5150872875815713    0.4018603341322840    0.3442757184679521
    0.5967742409853229    0.4427144988567001    0.3471689523996044
