Au41 rank 2
1.0
   29.7173990567853323    0.0000000000000000    0.0000000000000000
    0.0000000000000000   28.1693976558841683    0.0000000000000000
    0.0000000000000000    0.0000000000000000   30.9433447821088308
  Au
  41
Direct
    0.5112727624769613    0.3950829433606242    0.6786179627384524
    0.5445807328710048    0.4820424040085420    0.6567634075988679
    0.4528443178375806    0.4571091804661785    0.6397987889609289
    0.4840840853295926    0.5512157845725986    0.6258911853294189
    0.5775310883836795    0.5652249262467718    0.6243860517313035
    0.6243411605824366    0.4796015495334678    0.6002079443135212
    0.4736573320274601    0.3704341220252126    0.5993941327465204
    0.5185929979980557    0.6295066844066584    0.5823066216366158
    0.6090876192194339    0.6443746893760247    0.5823942831027453
    0.3954683756376359    0.5228313760521852    0.6071724068672255
    0.4274222088481619    0.6103366787171013    0.5793347179604691
    0.5653400761261311    0.4024309627123518    0.6056374340031807
    0.6650037854644500    0.5649002644273798    0.5898062863442313
    0.3345662427471979    0.5846550298875606    0.5716447802489626
    0.5076031857149649    0.4480649390300356    0.4945948441838490
    0.4554595816342764    0.5219839585657381    0.5281013406441382
    0.6014640273008115    0.4270951631257119    0.5258194424442311
    0.4092023829319282    0.4374920795035881    0.5631459074562136
    0.4461852242714234    0.3669105954997793    0.5155471070025472
    0.5364958628108876    0.3542992235996767    0.5335189017997967
    0.5380691517018936    0.4970606541660508    0.5656940346471730
    0.6401827355701001    0.5157735387806244    0.5155572431572086
    0.3621128553617883    0.5110798342681677    0.5190330726272295
    0.3824878356098618    0.6081661269033808    0.4992354724103844
    0.4746350296315126    0.6298383774649616    0.5038723211702791
    0.5674225259118116    0.6367885886839533    0.5034484306026213
    0.5666445892663529    0.3811401282734345    0.4530237197263027
    0.6584464425816915    0.6129077774928031    0.5118165622750244
    0.5342096166889573    0.5420914780558121    0.4865802894933478
    0.4095802317898842    0.4444997093618838    0.4720862316411776
    0.4733032383459649    0.3858560802193760    0.4331011289694103
    0.5981280809455901    0.4746559431186303    0.4460865605910002
    0.4040011027893005    0.5353181835283221    0.4404190559067266
    0.6114648777247298    0.5748363071566540    0.4448256779655417
    0.5226895193661221    0.6151924117358865    0.4268226770016678
    0.4286571899487439    0.6288939691851405    0.4261942364114800
    0.5365498257730719    0.4370520000486205    0.3859270514630913
    0.4444058516056266    0.4668355777927719    0.3905493273638317
    0.5558008843793292    0.5338680709602490    0.3852259534946446
    0.4655006645211771    0.5628087575650800    0.3737910882384005
    0.5003112050433398    0.4935206712624955    0.3229520204147079
