Au41 rank 11
1.0
   30.5021839149148590    0.0000000000000000    0.0000000000000000
    0.0000000000000000   28.0162371966599295    0.0000000000000000
    0.0000000000000000    0.0000000000000000   29.9157965749784438
  Au
  41
Direct
    0.5231830657599679    0.4719283505711577    0.6308470065680116
    0.4651546795868004    0.5403701739361167    0.6628563864959585
    0.4833101655789598    0.3883447953971303    0.6044026593059144
    0.4265026820907383    0.4553840443232554    0.6382744565441457
    0.5551214226298464    0.4200041702359040    0.5575046921850692
    0.5463112308489426    0.5694690231921331    0.6361937258834020
    0.4724843829907540    0.6084868134074375    0.5966911550581381
    0.3983392322360679    0.5473475282010329    0.6038636087347208
    0.3523529510758868    0.4646854438919903    0.5868497946345878
    0.5877497071149755    0.5123234562364164    0.5760029549049964
    0.4036315186882856    0.3899433653985493    0.5577378530484677
    0.4600980802143905    0.4723951963351347    0.5525153895854585
    0.5539336169723318    0.6026154308366057    0.5503008118743865
    0.3986984498187056    0.6201865931230935    0.5436034656589854
    0.3462805507116036    0.5383553453103096    0.5282084750132924
    0.4847014010918200    0.3703468438812058    0.5147870437571478
    0.6173117954131367    0.4604253011695732    0.5021249799833127
    0.3486297895652756    0.4409515772655686    0.4984735001827046
    0.6196029413109690    0.5612796006655456    0.5003618042251247
    0.5307547384688850    0.5004454242327677    0.4986534824080947
    0.4483337531915059    0.5474604178132643    0.4979287248549220
    0.4809322157171646    0.6430786932490972    0.5102290356095094
    0.5608706032960170    0.3928808430577597    0.4681535004774451
    0.4051121160119103    0.3711551174995133    0.4662449249078032
    0.4580148818319704    0.4568284719680538    0.4594599096803306
    0.6745804440127767    0.5067992372290068    0.4460388452865577
    0.3734305201078376    0.5980362712002361    0.4581388608864638
    0.5410407122856499    0.5940081747739873    0.4577466228527799
    0.3284820703729651    0.5152951930814871    0.4409611510903579
    0.4876095362947416    0.3616848025347021    0.4239046245769779
    0.6280662042491350    0.4280528597890046    0.4132388367939911
    0.5878512270920907    0.5188424313317324    0.4204592256757301
    0.4574554816945792    0.6114988045242042    0.4243161155631950
    0.3708251316328414    0.4377441325442757    0.4074239268806473
    0.4102703120723801    0.5293121369636816    0.4006578298809578
    0.5738314456000931    0.3568773304363004    0.3799914667959323
    0.5010023554735047    0.5300329024100070    0.3970503025173194
    0.4129210206995051    0.3608049830475917    0.3697062882754035
    0.5419157698761199    0.4460461351137266    0.3789066438635310
    0.4525593089339578    0.4501948348298949    0.3646918998671189
    0.4960475431856852    0.3661682434798608    0.3337098948953667
