Au41 rank 3
1.0
   29.7100669864075400    0.0000000000000000    0.0000000000000000
    0.0000000000000000   29.3575430548947303    0.0000000000000000
    0.0000000000000000    0.0000000000000000   29.3898742609358763
  Au
  41
Direct
    0.4104911009837351    0.4311899090977261    0.6588221947505829
    0.3368890361202603    0.4878803694940598    0.6458990197051280
    0.4949200459563512    0.4544570403304350    0.6307209666402219
    0.4254979068829844    0.5194247066567899    0.6270951882271386
    0.5806746447436173    0.4750654103051127    0.6071829721580717
    0.5111421739292259    0.5430411236065145    0.5983995998076654
    0.4449527805342344    0.3872609451546372    0.5831856416990587
    0.3626527937981027    0.4335866929516466    0.5742866650246238
    0.3542287866281233    0.5324251777420008    0.5657413023899116
    0.4366475367922740    0.5804333719344115    0.5555510985243154
    0.6654843620622225    0.4969056682745725    0.5727274489288467
    0.5392271961787557    0.3915189079006819    0.5768185325485362
    0.5949285710605492    0.5575175681126204    0.5597014069878213
    0.4392528676200245    0.4793099058344715    0.5358947575718598
    0.5225459489019587    0.6113672518953374    0.5350773604698893
    0.6235852246457662    0.4185165015115050    0.5423168162562132
    0.4864691752056721    0.3521653306131179    0.5078882509688286
    0.4008156338781797    0.3926034752320565    0.4986051843345751
    0.6229666336708641    0.4992349567568918    0.4888642738308938
    0.5324654182573086    0.4773944336301798    0.5242628814685123
    0.5370563675696257    0.3403576438667929    0.4284284242848359
    0.5822414304303754    0.5802365727538983    0.4670807404699958
    0.4789311250639103    0.4395361435840731    0.4572243695519017
    0.3811284190465308    0.5651426805715591    0.4822088312279149
    0.5806651890977800    0.3419135690074899    0.5096940625080063
    0.4532842033049683    0.6237198347698979    0.4697273892642508
    0.3494196978466825    0.4739933325860783    0.4906246449953691
    0.4785149071042449    0.5316439493442620    0.4690725262436831
    0.4423468857378350    0.3595932400041257    0.4213182340701615
    0.5361380799582580    0.6617177153254330    0.4555771946917334
    0.5860991210041866    0.4187783562340876    0.4548144447711172
    0.5640362994458384    0.5018718401095095    0.4168762594104524
    0.4934403433772583    0.3386538389754055    0.3461583089248169
    0.5164363611813260    0.5864132198052995    0.4004982977472359
    0.5333377511286540    0.4215215993691158    0.3773732352971646
    0.4224214498315719    0.5686270253794273    0.3965010530342147
    0.3853389270541601    0.4346476621478901    0.4138322466113284
    0.3425183158029056    0.5192419332370267    0.4097402010784134
    0.4864553093874128    0.5033883660406793    0.3673589084370954
    0.4459137035083470    0.4187104594681326    0.3433021347034347
    0.3984171480249437    0.4976748220719993    0.3391073431814893
