Au41 rank 13
1.0
   29.4655041219885732    0.0000000000000000    0.0000000000000000
    0.0000000000000000   29.8372143849451490    0.0000000000000000
    0.0000000000000000    0.0000000000000000   29.2450821506294290
  Au
  41
Direct
    0.4190128297123218    0.5328552675275561    0.6521940001459132
    0.5098285960655899    0.5549346555633253    0.6384473167460454
    0.5322147459198278    0.6113606263407598    0.5664622006984137
    0.5991870617717601    0.5552902652626195    0.6081945484793491
    0.4816230299121721    0.4651012923651159    0.6277748803991535
    0.5667360843415663    0.4839407491291125    0.6599343722961053
    0.4404267783049717    0.5937545822428707    0.5829096012876648
    0.6394835504001184    0.4712217490907147    0.6033845424056906
    0.3528440633441928    0.5565266998702576    0.5926964348177259
    0.4047004915215140    0.4791227622648387    0.5742849824619388
    0.5578433921784702    0.4228139941779154    0.5887908925708574
    0.4723138399130362    0.4212469110168602    0.5440321294372006
    0.4900495110602803    0.5170866064342302    0.5461438912474401
    0.4673208101174077    0.6323441645458039    0.5022784123911663
    0.6523853327941002    0.5261329236517736    0.5287034421613251
    0.3781498333265408    0.5950757162324897    0.5108654113348087
    0.3399921738796216    0.5094472126208891    0.5123337282371908
    0.6181323515013526    0.4402044618777616    0.5182002940259226
    0.5471180391092033    0.3758608716077906    0.5091028640024297
    0.4814415673300183    0.5467841631433603    0.4575640637384915
    0.6243348579479810    0.6147475816576564    0.5425078795066804
    0.4063801978481171    0.4508647918734586    0.4828645761115534
    0.5302478853878013    0.4661985158464749    0.4726888466423645
    0.5599063857237034    0.6433575639411352    0.4800267608806725
    0.4697185202958935    0.3908105224355794    0.4521945686988962
    0.3880488042218792    0.5310009015454245    0.4359622740753725
    0.5649543818514433    0.5469067080597129    0.4982598267588521
    0.4089993139172916    0.6205980311175201    0.4276643501202336
    0.6377911144295891    0.5857603248043524    0.4517102086565499
    0.6325110982329352    0.4927894025244244    0.4415354185047871
    0.6006453009382163    0.4050439483628264    0.4333623425539400
    0.5401307005776985    0.3348518173938348    0.4246012865123552
    0.5910467509982694    0.6392845561420804    0.3909231164313492
    0.4518508538455933    0.4700684570281822    0.4015705237739119
    0.4984946658866279    0.6361358002259352    0.4107294805441080
    0.4516788903363355    0.5589584536595402    0.3687148354594842
    0.5238102201435629    0.4149427218668866    0.3772097772379642
    0.6090489648227506    0.5498787821426719    0.3692124809676174
    0.6044432874302883    0.4603645641797203    0.3574304243105294
    0.5224247166835672    0.5021917402566248    0.3466410855244704
    0.5317262543470399    0.5921984755118036    0.3350098624307185
