Au41 rank 12
1.0
   29.1252356299404269    0.0000000000000000    0.0000000000000000
    0.0000000000000000   29.1821773319082496    0.0000000000000000
    0.0000000000000000    0.0000000000000000   28.2111521278007160
  Au
  41
Direct
    0.4280429412587022    0.3849799444818975    0.6448590225570290
    0.5131554149728031    0.4236606746498628    0.6395895176762570
    0.4344115803696111    0.4784452710586304    0.6357031103203556
    0.5950273202297038    0.4661637498383889    0.6305322458033904
    0.3515552595429878    0.5215286651351989    0.6193622958755833
    0.5179624991660110    0.5213590080440131    0.6167395231177545
    0.3595901579383357    0.4317363582984746    0.5931042452457879
    0.4352765813002213    0.5625080834538059    0.5920635103564762
    0.4845779262422061    0.3627358303648159    0.5662208954000636
    0.5698589694023767    0.4057303557524721    0.5597179275645588
    0.3905062659711839    0.3471248007169160    0.5649640146998105
    0.6511470666379298    0.4566286380774276    0.5531101213459396
    0.5924291723232877    0.5318988223596719    0.5569528162974807
    0.3484111006427545    0.5893468947847637    0.5542146602398550
    0.5137137181743451    0.5816598859640100    0.5414374973087106
    0.3403590789426201    0.4964791467700336    0.5242257906917861
    0.5227194472523701    0.5052073038246641    0.4708412388625354
    0.4822784533999738    0.4555399934310887    0.5421363692230368
    0.3571541269621955    0.4070468143623033    0.4981245471486158
    0.4314791047609329    0.6195838373416241    0.5137123013748656
    0.4347162793695734    0.3480174136622396    0.4809434364231296
    0.4324772218003011    0.5168013016757884    0.4927733348983775
    0.5260306708066818    0.3789155051354385    0.4786496720420194
    0.6576651484156967    0.5185616920607342    0.4814435400492963
    0.5996827195453078    0.4394947359774687    0.4724907701969217
    0.3472026172192982    0.6562554315731378    0.4853882564304492
    0.5862317865224482    0.5839278184449506    0.4757646447335480
    0.3545614025842598    0.5660944042491889    0.4576738874995007
    0.4979081593273620    0.6032786666144712    0.4469567861995820
    0.3656693189169647    0.4769852839231358    0.4297756139797281
    0.3853352713439565    0.3888221797698435    0.4083138174274787
    0.4773369377280353    0.3664947799361415    0.3965659104688814
    0.4107602777426906    0.6352186604574426    0.4164396123438314
    0.5979305148459769    0.5085539023395521    0.4039621649117579
    0.4444477117615032    0.4550503937630493    0.3750560022872529
    0.4799732779006400    0.6136774311348639    0.3524211990112753
    0.4179235356839041    0.5450283351141337    0.3863523068766562
    0.5693345385717946    0.5991412883513371    0.3753487646490581
    0.6558830189547222    0.5827783251324548    0.4082958953490484
    0.5365176275845958    0.4368849211568310    0.3982857941574631
    0.5090631861951578    0.5241660700078394    0.3680922099919541
