Au41 rank 19
1.0
   29.1016764166270008    0.0000000000000000    0.0000000000000000
    0.0000000000000000   28.0485299000171651    0.0000000000000000
    0.0000000000000000    0.0000000000000000   29.7795095542425301
  Au
  41
Direct
    0.5616792851717960    0.4005616920069514    0.6647220351763069
    0.4801108174867656    0.4484358096055985    0.6512372109068278
    0.4021284909192714    0.4956375216769482    0.6325429175842947
    0.5600451520225118    0.4789315219083303    0.6065926135264923
    0.4799979459416235    0.5341954618146385    0.5952227784495319
    0.6106734599540184    0.3923033704876779    0.5871828746316848
    0.5141633295792231    0.3850156614357225    0.5853746111540327
    0.4256912874985981    0.4172519160753095    0.5775391513324111
    0.3924054631164761    0.5540163013364596    0.5577338130828502
    0.5576614528518262    0.5550299959117907    0.5460329116136445
    0.3448925377743752    0.4676803564538665    0.5642592054833180
    0.6183822492990260    0.4770380617672519    0.5330958665428553
    0.4727894889552751    0.6039191393246069    0.5285411491312497
    0.5134548373672063    0.4636107315797133    0.5230725190546761
    0.5628491108464859    0.3672981168652853    0.5076686336910990
    0.6558430652345454    0.3911052636678213    0.5080057205497940
    0.4669812339229079    0.3706064155141716    0.5042192030574667
    0.5506376322054536    0.6209477366008226    0.4774795351341636
    0.3820840945524672    0.4145173069827506    0.4946773780494487
    0.4425720368464777    0.5187606364067437    0.4830027759951031
    0.3469869649952961    0.5090121473958736    0.4814405969593634
    0.6210892728622773    0.5525637247703619    0.4740629981791478
    0.3880307905382433    0.6021793809686006    0.4779723018067894
    0.5309868338499872    0.5262607453994210    0.4510846578166975
    0.4684590045894551    0.6387164555783299    0.4372637035774649
    0.6379795291064436    0.4597303830146302    0.4421935728281293
    0.3672552613926014    0.4502074051474459    0.4087963171272757
    0.4810451372917649    0.4474910133296177    0.4360160069628295
    0.6142092474385920    0.3646590367077012    0.4284689997492035
    0.5198070547776780    0.3573269125441257    0.4243030687791580
    0.4234789483611858    0.3687358782263262    0.4212026909076019
    0.5390284747318037    0.6004355394614624    0.3852078781279770
    0.3716454996631041    0.5470342670637141    0.4001073927213656
    0.6017234384566322    0.5261071427141915    0.3844165692437317
    0.3857964866315194    0.6433294054564466    0.3931014945883896
    0.5689908082840156    0.4336237870727400    0.3799884616872885
    0.4205728542606199    0.4898055623856460    0.3393326947275000
    0.4502732601594030    0.5808551061603257    0.3582458682757425
    0.3916210211522328    0.3942899088769391    0.3364099331953322
    0.4828024686158581    0.4120779515688299    0.3485013344792035
    0.5133239738865262    0.5087579344402731    0.3524852164910872
