Au41 rank 8
1.0
   27.9554242999008871    0.0000000000000000    0.0000000000000000
    0.0000000000000000   29.4862027694715856    0.0000000000000000
    0.0000000000000000    0.0000000000000000   29.2591711875330596
  Au
  41
Direct
    0.6405584310991730    0.4854877597207084    0.6607473698578026
    0.4786287418398906    0.4565305993247742    0.6226214591233197
    0.5489463696498107    0.5189219239333883    0.6473951193717681
    0.5752193290596944    0.4284747620667653    0.6193370973716116
    0.4607035509941401    0.5480303178068808    0.6150942887110964
    0.5384222930381036    0.6041028655731950    0.6073708526029925
    0.6279073208162785    0.5611235384128036    0.6055442353403756
    0.4097627309778111    0.3946238711804608    0.5992357217917281
    0.4511179052130596    0.6391106862291619    0.5899616288582167
    0.5059991865604712    0.3776035104713389    0.5774851206856929
    0.3915715586792118    0.4854003277590280    0.5869013299710900
    0.6089783883433141    0.6322982130900869    0.5484739579223838
    0.6453520228768997    0.4741021890872055    0.5664551401378359
    0.4551046161415373    0.5112804383492341    0.5179993650886512
    0.4320304090216520    0.3404502314093609    0.5263110201439739
    0.5172552171693686    0.6508390988780661    0.5204950601508107
    0.3899583419278954    0.5759211381726498    0.5526816542259717
    0.5445226277956486    0.4954247566981594    0.5517120251405309
    0.5873297967727010    0.4058707638984886    0.5269764406620628
    0.6309665928554766    0.5495831893269580    0.5099068267440595
    0.3810394812789130    0.4204447096500236    0.5117968872483694
    0.4191825223283355    0.6496053277993978    0.5004012639072001
    0.5187944649600306    0.3513354183239487    0.4851381305164440
    0.5107023363202745    0.4477703806427544    0.4727222730369232
    0.3482063979382787    0.5066122157546672    0.5018875634699351
    0.5843053579383541    0.6192713632838390    0.4587393183911474
    0.5334622408589175    0.5387687018290236    0.4681221351431847
    0.6398404582257835    0.4643434087796955    0.4727627808968141
    0.4041107084853560    0.5689553609591336    0.4536735192808003
    0.4355951538032167    0.3840817486278132    0.4419249697661495
    0.4839769346705789    0.6208226788665008    0.4356935068331039
    0.5870912139678114    0.3958331807109988    0.4318449684003752
    0.6201061565041345    0.5394103327439668    0.4157745192652046
    0.4101795758209589    0.4748166912327718    0.4352346563849923
    0.4694745847577257    0.5345859302225040    0.3901240398051851
    0.5492168025147006    0.5888330975087994    0.3737937407261809
    0.5112115609514717    0.3517234116453916    0.3888703316238319
    0.4815528900493834    0.4424199167112323    0.3776862750305409
    0.6384671484854804    0.4568127014480483    0.3784988367951993
    0.5549626271697247    0.5006201309506245    0.3488055946001630
    0.5649522394257451    0.4086076690813719    0.3375577813748770
