Au41 rank 15
1.0
   29.1091001580512234    0.0000000000000000    0.0000000000000000
    0.0000000000000000   29.7108835847945976    0.0000000000000000
    0.0000000000000000    0.0000000000000000   28.4108020134168733
  Au
  41
Direct
    0.4921659663571161    0.4474096667387265    0.6470205326009332
    0.4832497575745695    0.5401553092937865    0.6421222645641995
    0.5679509557309491    0.4978348146996306    0.6190237430618548
    0.3930955836141821    0.5646007142043554    0.6299352250027548
    0.5542834257008946    0.5910800202821910    0.6053400756697901
    0.4104306155675952    0.4769051466105812    0.6082573229539511
    0.4623800773818997    0.6227541965680872    0.5993405349235527
    0.6354335452738448    0.5483480455701990    0.5785497349642109
    0.5511330888109294    0.4115500506911048    0.5801290033751952
    0.4536968552617315    0.3977237657249645    0.5728440854742907
    0.6125556109682865    0.4689104727892772    0.5365048153560111
    0.5289681429674784    0.6626807073939539    0.5468504985335896
    0.3784001840351732    0.6219197433528935    0.5556567566400129
    0.4926593287390343    0.4861133508645571    0.5515390456387821
    0.3617838869471979    0.5297349246622343    0.5459733750850068
    0.6059765022757884    0.6166150984308352    0.5208547020421964
    0.5136847405363292    0.3386994359232140    0.5306139462879228
    0.5151953779173960    0.5691869248184046    0.5146506858399289
    0.5755322076041612    0.3977619418753406    0.4863735447701718
    0.3926585300126489    0.4430890265756777    0.5175398076109909
    0.4510629516753014    0.6427582794312351    0.4981965473637143
    0.6485220797528891    0.5403528352889774    0.4832828144249110
    0.5410053613011861    0.4905432707130032    0.4660448674775039
    0.4505635900170718    0.3807253369483474    0.4753436049839056
    0.4442282238177181    0.5191775142167024    0.4779876640262717
    0.5404447301977591    0.6396732551804251    0.4517968830702270
    0.6343750182826301    0.4570787687196958    0.4429835888875980
    0.4154150808473675    0.4467581461582198    0.4185857810541275
    0.6279709084197820    0.6131593113988986    0.4252588141833804
    0.5309651652074139    0.3327291610253452    0.4350720323560536
    0.3774384248123450    0.5904562800571823    0.4655159973141149
    0.6568960884264716    0.4444835913680039    0.3501032832661108
    0.3433844215151204    0.4992573522090963    0.4584632654535385
    0.5046804078502529    0.4170349288804472    0.4040855857186945
    0.6484459130450108    0.5323936907801566    0.3840982331343889
    0.5954904391080568    0.3842704109717606    0.3891932701926028
    0.4832755615753130    0.5060755341371225    0.3804557591301204
    0.5707380258480602    0.4765736981464319    0.3677208917521462
    0.5541828938206487    0.5665031875893407    0.3914595731990234
    0.4648971316709706    0.5957414219361156    0.4143578840914969
    0.3961766166197890    0.5363921680000394    0.3880290348707127
