Au41 rank 6
1.0
   28.5060269233969130    0.0000000000000000    0.0000000000000000
    0.0000000000000000   30.4826038630344804    0.0000000000000000
    0.0000000000000000    0.0000000000000000   28.1723300011548226
  Au
  41
Direct
    0.5711972550940908    0.4783211329790766    0.6451779898331114
    0.6569219407469060    0.4372500443308269    0.6407160423058437
    0.4830947329783583    0.5140920329070739    0.6255165385486754
    0.5631345780194740    0.5667257345991400    0.6255493189711430
    0.4920910121096661    0.4291880094374584    0.6598850450873781
    0.6541836438382967    0.5268897715487322    0.6348111974036232
    0.5708234086441685    0.3894055880159884    0.6201269830995968
    0.4216216252428405    0.4484716508650318    0.5972182042264979
    0.4878725257041773    0.5890346028419396    0.5690306831858502
    0.4105503186679647    0.5332091367036363    0.5631034658539763
    0.6494609559587461    0.3843472096466395    0.5630576513511469
    0.6449755158096768    0.6155409082551865    0.6229710592523269
    0.4824459284481265    0.3769572187471051    0.5810845393171595
    0.5729202349678516    0.6372891139968511    0.5606462602067773
    0.3489602677615962    0.4669430517265274    0.5368082485007918
    0.6305724654070637    0.5636259269231055    0.5441140629031672
    0.5646369242669459    0.3603343640097791    0.5266071861838982
    0.5484921653496075    0.5050851588302505    0.5447993178838523
    0.4194217474368884    0.6046425860368705    0.5020309623494061
    0.4061069906158039    0.3972715202085027    0.5153171946074485
    0.5025178109629811    0.6558450024996806    0.5000294587595606
    0.6466674635120413    0.4744964179879702    0.5512548129786013
    0.4754719637450188    0.5241216355313514    0.4820528278611236
    0.3702893064960162    0.5314246176870026    0.4727002079567940
    0.6228717354762084    0.4180127034530744    0.4768140987947596
    0.4965569501163034    0.4398617535952472    0.5052607903650501
    0.4786372462676319    0.3427307062500127    0.4913323820954245
    0.5663058632518287    0.5883629454720039    0.4753309592790462
    0.3641183721042424    0.4440346712020113    0.4422724704077811
    0.4291267210481624    0.6723156939693928    0.4373183451510999
    0.6165892409124645    0.5104263836820377    0.4660006629735264
    0.5414297435815654    0.3877329192280339    0.4328324186040213
    0.4868432021903475    0.6014237287279265    0.4205473438830284
    0.5952208094896965    0.4553551515100658    0.3932930778157201
    0.3874013159901330    0.5971592996468474    0.4052975863158892
    0.4422069849465341    0.3925575027495866    0.4212996330575363
    0.5433638269284705    0.5295842586987702    0.4031659237635880
    0.3516452429445976    0.5177090532325286    0.3780343301175573
    0.4486354454889404    0.5267224220461388    0.3806734681384454
    0.5017695964951526    0.4499533698174989    0.3725297821792122
    0.4071852804401406    0.4482351475495418    0.3544539174875405
