Au41 rank 4
1.0
   29.0465394185800960    0.0000000000000000    0.0000000000000000
    0.0000000000000000   28.3081840639102751    0.0000000000000000
    0.0000000000000000    0.0000000000000000   30.1309996320500915
  Au
  41
Direct
    0.5109905065580318    0.3517341146925282    0.6694353837548291
    0.5070137954273509    0.4425803105115891    0.6382404470100043
    0.5888413528282977    0.3896174311822567    0.6271528893767661
    0.4244739432856153    0.4766259939413127    0.6047977353877787
    0.4297798800999390    0.3784418696531710    0.6306181043856373
    0.5006705823133406    0.5356576309434450    0.6078551515507383
    0.5861026983960702    0.4883260904244963    0.6108814596508472
    0.5822975876370542    0.5819084899109916    0.5875131913013152
    0.3541803371934245    0.4138005118212259    0.5895224990632746
    0.6549076625968603    0.4328987088889312    0.5749726771890481
    0.5097793151996637    0.3602590112444218    0.5783368690579785
    0.3441261539846779    0.5078090797779455    0.5634435176994483
    0.4221030774313019    0.5642696590051610    0.5611099631390079
    0.5003770026386940    0.4593825985233231    0.5445222795655750
    0.4985226500101981    0.6205108756516553    0.5601781323463541
    0.6395008320129666    0.5211347973870606    0.5389480023556874
    0.5908046631234117    0.3787533914907891    0.5336947500831423
    0.4282353778839961    0.3851181074590804    0.5356405985935239
    0.6181660414457441    0.6093977699432717    0.5062577350294654
    0.3621175426407269    0.4422231315721456    0.4992227684862817
    0.6466188919922602    0.4445222472661725    0.4834257049267620
    0.5086009147143943    0.3689655108671813    0.4869904807376090
    0.5520147597813773    0.4633997227028339    0.4679469939357306
    0.3760248270633331    0.5419179560723989    0.4831871666454651
    0.4503688432467062    0.6044037918639018    0.4792073519123878
    0.5346574673089064    0.6488943029697202    0.4798542022606524
    0.4642504653342537    0.5005785512246232    0.4680603747577499
    0.5382187072414951    0.5469317245136250    0.5086788239604829
    0.6309184232423226    0.5334580811993376    0.4465608262717629
    0.5948680389040615    0.3728821710351668    0.4430924182602795
    0.4327164989998948    0.4060344560865549    0.4449952587098117
    0.5990972055604639    0.6209741898935202    0.4171791295861463
    0.3729030312155229    0.4769086603382889    0.4157653113963758
    0.6095999498666479    0.4555932181092021    0.3943946930543761
    0.5165688380403421    0.4011007863639902    0.3993691921340532
    0.4252503089731067    0.5577733146485503    0.4011900607870691
    0.5061465694257610    0.6092001019986842    0.4010514422050528
    0.5787893244026333    0.5447417231178745    0.3688090046454038
    0.4524238475895085    0.4647178542377196    0.3698026883156976
    0.5405161886162789    0.4635347542242835    0.3325237465905966
    0.4901046043603562    0.5463850921069322    0.3355086529593632
