Au41 rank 9
1.0
   28.1362882342985969    0.0000000000000000    0.0000000000000000
    0.0000000000000000   30.5508133789623813    0.0000000000000000
    0.0000000000000000    0.0000000000000000   31.7844920533210455
  Au
  41
Direct
    0.5756114146089231    0.4984474462202902    0.6848986802740534
    0.4856668640729496    0.4823103876153671    0.6581267853483397
    0.5294874478271377    0.5628968503315697    0.6395700121191881
    0.3983979420967158    0.4683571269023726    0.6273826005936604
    0.5647573306349907    0.4375290196708430    0.6212773446413404
    0.4374704706041336    0.5514481383690770    0.6132394429159010
    0.6101645381556459    0.5191461650912800    0.6064189764167808
    0.4725860693021228    0.4206802011461953    0.5944622774528147
    0.5906318264559950    0.6067100971401417    0.5845084367564485
    0.4908684185723327    0.6208124358321779    0.5820021014168194
    0.3562682282308679    0.5220461312286651    0.5708083034405207
    0.5509661419059094    0.3817965523162249    0.5565177795263061
    0.5297588833481427    0.5416862155051829    0.5492974233514306
    0.4054929823292460    0.5920453853669396    0.5405385633771571
    0.3967863442478984    0.4456828992563856    0.5418966115919228
    0.5964338515013307    0.4607154044224179    0.5398589941623301
    0.6313946350578472    0.5440246400338701    0.5253841183592245
    0.5515342980385776    0.6633468711301379    0.5257779042687409
    0.6440075816603471    0.6335636693780127    0.5174027684957470
    0.4554424805595578    0.6620789139325165    0.5121395218852336
    0.4611194763024706    0.3849927642509427    0.5143851280895801
    0.4874803964910565    0.4744767239849058    0.5118913088796674
    0.3864616594195200    0.5202715362219025    0.4882722336946819
    0.5311002043033248    0.3274226751586720    0.4906150155101967
    0.5685184121197482    0.4096282452395546    0.4724711748738564
    0.5138186701874605    0.5456825534696165    0.4640647560189703
    0.6002446707307911    0.4925940086793847    0.4585179922603858
    0.4279707750349944    0.5953109263365239    0.4564036414397289
    0.4153556378321541    0.4392765676228532    0.4558566949303438
    0.6051017416891327    0.6726196980003122    0.4483340432404045
    0.6141752056820882    0.5818552968479974    0.4490886593110616
    0.5136668018535269    0.6413706904097365    0.4463482903128017
    0.4875038362990287    0.3792604499926491    0.4294665692269948
    0.4265305214790626    0.5165022989579916    0.4100026615929876
    0.5398977889414971    0.4518927728286024    0.4007411333167912
    0.5731227524583066    0.5345021436331290    0.3846126965430735
    0.4834519874979688    0.5856541030108127    0.3841298566626676
    0.5762457491154968    0.6266386120886623    0.3787505858884547
    0.4477042273864172    0.4363808922050111    0.3740789462557407
    0.4907953439402230    0.5063188554684305    0.3401804286654105
    0.5404123440918792    0.5786604596289334    0.3132870274774062
