Au41 rank 16
1.0
   28.7078289605345489    0.0000000000000000    0.0000000000000000
    0.0000000000000000   29.6384546984753925    0.0000000000000000
    0.0000000000000000    0.0000000000000000   29.8109280566135979
  Au
  41
Direct
    0.4848512337837337    0.5730208814805106    0.6657602757933014
    0.5062358680715163    0.4845095965068936    0.6461010416378785
    0.5996018389269071    0.4658658059960469    0.6354159714591771
    0.5754207635568984    0.5540263322364969    0.6423103756670323
    0.4213114292838799    0.5185683567089756    0.6204943024073752
    0.5347208474823055    0.4075543634806650    0.6021148291128907
    0.4403507972509907    0.4294112358731239    0.6058741464994191
    0.4378228497938345    0.6069928206056497    0.5933531322485076
    0.5304788415321450    0.6278526345904719    0.6041900401810195
    0.4706737922222375    0.3467747674469858    0.5740576625580970
    0.3592024327182820    0.5632039074934283    0.5660218824614573
    0.6345100608050072    0.5229161723168171    0.5731442894397554
    0.6238635346007879    0.6154489139722463    0.5916131814321687
    0.3712731373361222    0.4717244656223961    0.5565443558773726
    0.6049230415029236    0.4367755336551470    0.5458541787504763
    0.3904838424286757    0.3829765591381719    0.5401536331989482
    0.5418487385722389    0.3725807836298214    0.5163586641377073
    0.4808063994098810    0.6639751611843556    0.5335343030982452
    0.4145341296805465    0.6031085610672093    0.5018324361815824
    0.5671795771549704    0.6308777614490347    0.5160504571289934
    0.4558629484719466    0.3408630676593839    0.4838937448226693
    0.6297334033575199    0.5003248446009176    0.4827110951843345
    0.3626328395000585    0.5269684480663331    0.4813167947270193
    0.6499894038929729    0.5869433467085897    0.5077012493979234
    0.3498843992025948    0.4359339202832684    0.4738165632434348
    0.5963087485834822    0.4177892597951344    0.4559740736588642
    0.3616721546437720    0.3444350814529485    0.4608473888216530
    0.5234484865261168    0.3632041876581871    0.4246982708894437
    0.4224571076140023    0.5654123034633697    0.4193640369695086
    0.5828462950177242    0.5744816742686326    0.4436042382751130
    0.3713783431409889    0.4877617841893908    0.3983482573767638
    0.4322960380448148    0.3544198742609522    0.3966108165231868
    0.3469145903374103    0.3987118840197839    0.3879712178586732
    0.5817216295701717    0.4075343355575967    0.3657410749733050
    0.4965233065292505    0.6133488551349141    0.4552794337112221
    0.5118308290826641    0.5515754382201496    0.3876026660275526
    0.5862179017949364    0.4933816096286367    0.4009455875491868
    0.4979632529436167    0.3771809234993477    0.3338095593066786
    0.4208658589603209    0.4310040581882325    0.3410302402607051
    0.4357564461540043    0.5223050275634277    0.3385440404950583
    0.5125915140370012    0.4686449571257451    0.3454256994460272
