Au41 rank 14
1.0
   29.2684899147962732    0.0000000000000000    0.0000000000000000
    0.0000000000000000   27.9168655854415313    0.0000000000000000
    0.0000000000000000    0.0000000000000000   30.0183014653889835
  Au
  41
Direct
    0.4716536998204197    0.5697373233646374    0.6556772114966031
    0.5634771742876776    0.5523005287406343    0.6520897896866864
    0.5930073998315745    0.4608130038918123    0.6661076632132333
    0.4993121348517590    0.4753908802019832    0.6545716216937588
    0.6175082724182726    0.6083816708785801    0.5990052570948147
    0.4160383863531880    0.4973382011680784    0.6171118695524679
    0.5222979264191889    0.6184317240847084    0.5913328793092716
    0.6371468023365005    0.5108314400426646    0.5998041835994827
    0.4328620999903626    0.5914440428019319    0.5745503464094394
    0.3541847542633590    0.5371772574248135    0.5584864085191439
    0.5374028592046796    0.3874742327683770    0.6380953585792259
    0.4614126522802531    0.4128141768577717    0.5890311017511803
    0.6125230515272460    0.4158057404754922    0.5867205384336288
    0.4815766964579503    0.5040432061962234    0.5510807656806769
    0.5364991312900558    0.3606177747828094    0.5512897292082476
    0.5669154863598638    0.5414919946426443    0.5379426516060397
    0.3958462861551024    0.4532543466667318    0.5327620802295164
    0.6590013452144430    0.5669186015547855    0.5242773374459021
    0.5803567419496980    0.6407970920624287    0.5193967532618203
    0.6481806095189563    0.4699178076343282    0.5151064401526113
    0.5497407600292092    0.4509693672513858    0.5106057394989355
    0.6235226249842080    0.3736212328961900    0.5060354081875731
    0.4879300311084553    0.6242681241603788    0.5050680782832220
    0.4636710474875932    0.3967006787543032    0.4960582597432688
    0.4086795869342701    0.5712744240295169    0.4877367960040815
    0.3389632585757190    0.5060307138036747    0.4722816122475418
    0.5054777919695392    0.5300674813833910    0.4653226840896876
    0.6441145927277132    0.6244006062960430    0.4525127802532241
    0.5438126055893820    0.3607391502614681    0.4586667826161372
    0.4212759884528317    0.4679539705278878    0.4446794652931894
    0.6427854231627766    0.5269397413015192    0.4392885049737885
    0.5501396274700564    0.6249042500634631    0.4336707072304219
    0.6059891758743370    0.4359369763460409    0.4338750035592210
    0.4589330296686540    0.6072851204341883    0.4178852228079716
    0.5075079385524980    0.4373046741327859    0.4183390239789404
    0.3803354118966483    0.5476507276956326    0.3998803731820688
    0.5643448893864019    0.5109205297768808    0.3884459803804839
    0.4689485582276519    0.5137722963810987    0.3758852878579201
    0.6136742269734428    0.5923104455777058    0.3710651762251361
    0.5231723166027253    0.5934294755235839    0.3477665188149155
    0.4301590641672643    0.5892593397518920    0.3317665667417410
