Au41 rank 10
1.0
   27.6699129172765126    0.0000000000000000    0.0000000000000000
    0.0000000000000000   30.8386640729615138    0.0000000000000000
    0.0000000000000000    0.0000000000000000   30.1590060971251148
  Au
  41
Direct
    0.4964192730433876    0.4551686920942948    0.6686567276273296
    0.5129877727616361    0.5379732924832473    0.6418058246752931
    0.4125880813758759    0.4160927451015337    0.6434710050179806
    0.6007795477155743    0.5557451060059156    0.5924864284076459
    0.4169150814590752    0.5068117620657548    0.6401952924915802
    0.5707053694129327    0.4693466661593619    0.6105764831346866
    0.4350860619835684    0.5947616026569077    0.6224110176197929
    0.5327941035469603    0.6188507796773521    0.6118914966530478
    0.4990295878540816    0.4072090096819304    0.5917746701308707
    0.3777060089455788    0.4582559791758614    0.5688241149776853
    0.3595350077162193    0.5474738094630929    0.5694957435195055
    0.6338140699578786    0.5619047724777165    0.5020836426398373
    0.3733418670162101    0.6374796848717805    0.5667686636339594
    0.4104835780505482    0.3690369085089683    0.5679247508972345
    0.4570366491826962    0.5335292902811944    0.5584162854023664
    0.4707039248694717    0.6503427064615135    0.5505852454491509
    0.6381242538783208    0.4825600780812629    0.5457469463275171
    0.5675826399054744    0.4240399404148896    0.5258854330798063
    0.4704467361475734    0.4596156478442931    0.5082626968707282
    0.4907131046663639    0.3699556746657300    0.5085014115480594
    0.5441335142431325    0.5197263495506255    0.5239548106323055
    0.4036569102565519    0.6750723982014536    0.4879342650355302
    0.4080283803679516    0.3232535056435818    0.4896505161698234
    0.3851120779856932    0.4116127002327044    0.4889041079459607
    0.5597289963769967    0.6169703041687349    0.5244297440690916
    0.3688081183193750    0.5008559101884289    0.4887563495681139
    0.3710544867128193    0.5898273914953387    0.4875297091503266
    0.4661417823821737    0.5413515538016056    0.4670664568040701
    0.4895198113542322    0.6338643919688701    0.4615449271507973
    0.6022758852473994    0.4844528042756291    0.4565491389708418
    0.5335570019923715    0.4207339416172775    0.4385598474819098
    0.4493536741509322    0.3735750029543081    0.4240276504730886
    0.4054494952935365    0.6346388114583240    0.4084129105963626
    0.4161182720909832    0.4611685204754696    0.4181147501056736
    0.5623016070210547    0.5722989707063950    0.4410488413022166
    0.3849103122882003    0.5454977282217006    0.4080230928105298
    0.5300686925726191    0.5005470875189069    0.3938409778560975
    0.4857348820398812    0.5828847856551221    0.3841587746512158
    0.4817716333116925    0.4286218407584111    0.3589290704412438
    0.4461140336323967    0.5087804959969492    0.3411678094092323
    0.4065624853418315    0.5897628309829063    0.3293313559744542
