Au
 1.0000000000000000
    29.7100669860000011    0.0000000000000000    0.0000000000000000
     0.0000000000000000   29.3575430550000007    0.0000000000000000
     0.0000000000000000    0.0000000000000000   29.3898742609999992
 Au 
  41
Cartesian
 12.1998800000000003 12.6523400000000006 19.3597800000000007
 10.0109800000000000 14.3119099999999992 18.9839599999999997
 14.7083899999999996 13.3397900000000007 18.5396000000000001
 12.6416799999999991 15.2441700000000004 18.4321100000000015
 17.2537200000000013 13.9493600000000004 17.8464999999999989
 15.1833200000000001 15.9404199999999996 17.5871500000000012
 13.2243200000000005 11.3716399999999993 17.1357399999999984
 10.7738899999999997 12.7200699999999998 16.8750199999999992
 10.5237400000000001 15.6231600000000004 16.6305000000000014
 12.9675200000000004 17.0438200000000002 16.3339600000000011
 19.7710499999999989 14.5916099999999993 16.8327600000000004
 16.0242399999999989 11.4906500000000005 16.9555900000000008
 17.6718499999999992 16.3689000000000000 16.4476100000000010
 13.0401100000000003 14.0765100000000007 15.7417899999999999
 15.5194899999999993 17.9439999999999991 15.7221899999999994
 18.5284799999999983 12.2879699999999996 15.9420999999999999
 14.4602299999999993 10.3505900000000004 14.9197900000000008
 11.9119899999999994 11.5251199999999994 14.6494700000000009
 18.5037799999999990 14.6557099999999991 14.3696400000000004
 15.8128499999999992 14.0057500000000008 15.4159699999999997
 15.9630700000000001  9.9875200000000000 12.5894600000000008
 17.2946099999999987 17.0341500000000003 13.7239299999999993
 14.2234900000000000 12.9215400000000002 13.4281900000000007
 11.3215000000000003 16.5879800000000017 14.1770399999999999
 17.2570499999999996 10.0362899999999993 14.9812499999999993
 13.4569299999999998 18.3175999999999988 13.8056800000000006
 10.3784600000000005 13.9118200000000005 14.4177900000000001
 14.2289100000000008 15.6235900000000001 13.8008100000000002
 13.1519499999999994 10.5622399999999992 12.3791600000000006
 15.9223199999999991 19.4265299999999996 13.3876399999999993
 17.4098199999999999 12.2938399999999994 13.3718400000000006
 16.7560099999999998 14.7323799999999991 12.2518499999999992
 14.6672999999999991  9.9426600000000001 10.1708099999999995
 15.3401999999999994 17.2170899999999989 11.7671299999999999
 15.8467500000000001 12.3724600000000002 11.0918299999999999
 12.5509400000000007 16.6910999999999987 11.6581100000000006
 11.4484100000000009 12.7595600000000005 12.1598199999999999
 10.1777499999999996 15.2433200000000006 12.0423399999999994
 14.4505599999999994 14.7766699999999993 10.8001699999999996
 13.2494399999999999 12.2929399999999998 10.0877800000000004
 11.8375400000000006 14.6122499999999995  9.9640000000000004
