Au41 rank 18
1.0
   30.5751002451809164    0.0000000000000000    0.0000000000000000
    0.0000000000000000   28.4480939221830376    0.0000000000000000
    0.0000000000000000    0.0000000000000000   30.4381120272851682
  Au
  41
Direct
    0.4584241188178084    0.4077124829922538    0.6747647053905873
    0.5048839878490259    0.4748068211970221    0.6271150881602134
    0.5448397160644745    0.3917941342596487    0.6571572653708710
    0.3938170658321517    0.3821673512263002    0.6184089821663854
    0.4143823235294556    0.4762899692837903    0.6226983297495469
    0.6293904126188621    0.3743889834010823    0.6318949386126405
    0.4623690418254000    0.5504302275186769    0.5914560532442066
    0.5487875274329931    0.5349390673507978    0.5699837865065009
    0.5892387419835114    0.4562912514709882    0.6014159258912620
    0.4800232627380637    0.3668010320996760    0.5942230116406632
    0.3760828686246244    0.5352065001441069    0.5628377777332980
    0.5651307341052547    0.3637922848198377    0.5690147297180399
    0.6474936811737273    0.4028287337480767    0.5476331343735867
    0.4168514120914744    0.6201692272188551    0.5490186601294613
    0.3596710565290904    0.4401100443060700    0.5554065538415873
    0.5042189506986733    0.6068283631735778    0.5314058361822290
    0.6141697699348593    0.4902264878438778    0.5216670811466761
    0.4137024633227380    0.3668257993661288    0.5315853004409359
    0.3275768000308250    0.4994522769620572    0.4938766431355056
    0.5767397045889854    0.5710542898764981    0.4907140054111309
    0.5016908373737957    0.3545477867151126    0.5077464491391919
    0.3697818349349951    0.5812555688811606    0.4808201417275084
    0.5836142805542794    0.3865744700988094    0.4829574328783222
    0.6630385691133708    0.4315779986944527    0.4637485218937663
    0.4441539095454005    0.6352227687327930    0.4646746987790634
    0.3763904236357794    0.4220029509316839    0.4666006214283778
    0.5319671027090153    0.6468206682652502    0.4539289646109109
    0.6273414027773930    0.5176819855611952    0.4363322172876247
    0.4369813350303538    0.3537092670728560    0.4459319185073177
    0.3786751428345390    0.5054401057749265    0.4201857667308067
    0.5155839183599304    0.3895180636972640    0.4235318245704064
    0.5690296558614469    0.5796333673445504    0.4011461943320865
    0.3952094075761737    0.5966083474366952    0.3959552619058957
    0.5935926980343028    0.4274158552294683    0.4021973175555256
    0.4387337842576398    0.4365522708245444    0.4002466969633264
    0.6742846612046614    0.4612202502985173    0.3779731140747264
    0.4833373118585458    0.6104882999335836    0.3852918003988604
    0.4472146588519517    0.5243585753542460    0.3639683866590908
    0.5186314216406164    0.4657427550253500    0.3672510095733900
    0.6013283491424064    0.5078853059429087    0.3475280535636983
    0.5250545870902525    0.5529148472096999    0.3259343605057897
