Au
 1.0000000000000000
    29.3665051099999985    0.0000000000000000    0.0000000000000000
     0.0000000000000000   28.4598282540000014    0.0000000000000000
     0.0000000000000000    0.0000000000000000   30.6062529830000010
 Au 
  41
Cartesian
 14.9597700000000007 13.1454699999999995 20.6018700000000017
 15.8088800000000003 15.0709499999999998 18.7465299999999999
 18.6599299999999992 15.5961800000000004 18.7298200000000001
 17.6383200000000002 13.3940000000000001 19.9876100000000001
 13.1935800000000008 11.5235299999999992 19.2746800000000000
 15.8984699999999997 11.8077100000000002 18.3813800000000001
 16.6932499999999990 17.2222499999999989 17.3142400000000016
 11.6855799999999999 12.3436400000000006 17.1361099999999986
 13.1927699999999994 14.2208600000000001 18.6447000000000003
 19.4140599999999992 17.8762000000000008 17.4363700000000001
 17.8381200000000000 13.3847699999999996 17.1944300000000005
 13.9819499999999994 16.4523699999999984 17.1609799999999986
 13.9442500000000003 10.6883700000000008 16.7815900000000013
 11.6830300000000005 15.0762499999999999 16.5448899999999988
 18.7861599999999989 15.6487499999999997 15.9055099999999996
 15.8455100000000009 14.8860499999999991 15.6734799999999996
 16.3759000000000015 11.6033000000000008 15.6805900000000005
 10.4751999999999992 13.2275799999999997 14.8201300000000007
 10.0069300000000005 15.9522300000000001 14.5738699999999994
 18.0347399999999993 18.2834099999999999 15.1048299999999998
 15.1856299999999997 17.8659999999999997 15.0878399999999999
 12.0496200000000009 10.9484899999999996 14.7125599999999999
 13.7449399999999997 13.1839600000000008 15.1883999999999997
 12.5270899999999994 17.1255500000000005 14.8964099999999995
 17.9658900000000017 13.4861500000000003 14.3849000000000000
 14.6616599999999995 10.0163899999999995 14.2273200000000006
 14.2183899999999994 15.1576000000000004 13.4375400000000003
 11.4373000000000005 16.8020800000000001 12.3793799999999994
 17.9847800000000007 16.1000799999999984 13.3088099999999994
 16.2161900000000010 11.8877299999999995 12.9192999999999998
  9.9885599999999997 14.3718400000000006 12.3496400000000008
 10.7051700000000007 11.7333999999999996 12.4575499999999995
 16.6356499999999983 18.4753299999999996 12.7970799999999993
 13.9807500000000005 17.8566700000000012 12.5531799999999993
 13.4994300000000003 11.5896899999999992 12.3338999999999999
 17.6008899999999997 13.9131499999999999 11.7060899999999997
 16.0057100000000005 16.1895500000000006 11.3644599999999993
 13.4082500000000007 15.9076299999999993 10.5865600000000004
 14.9365900000000007 13.5871200000000005 11.0842200000000002
 12.1797299999999993 13.4045600000000000 10.8230299999999993
 10.7396899999999995 15.5607100000000003  9.9785699999999995
