Au41 rank 20
1.0
   29.5981066194942350    0.0000000000000000    0.0000000000000000
    0.0000000000000000   29.7357028134492687    0.0000000000000000
    0.0000000000000000    0.0000000000000000   29.8705100318655816
  Au
  41
Direct
    0.5031438341612773    0.4456272902202388    0.6638032835094576
    0.5055344687577356    0.5367034188344948    0.6604480934637043
    0.4277408707014927    0.4875711974892211    0.6318417074972064
    0.4254588051645485    0.5794724699018953    0.6470803294046831
    0.5833151054192670    0.5760007978579550    0.6303191918955835
    0.5777792412190244    0.4843930463805354    0.6241746136417088
    0.4552300530472382    0.4038740027841670    0.5973446070369007
    0.5512920258285590    0.3999492226795607    0.5996750146243763
    0.5029291005226344    0.6182811034711240    0.6141614282162524
    0.3923023237509689    0.4533468227391161    0.5530902452064069
    0.3749023735364417    0.5421631827196720    0.5808758968339859
    0.6235351980177871    0.5318996051904428    0.5588885680826265
    0.6245752214086587    0.4389779882977662    0.5589641580635415
    0.5726983576833374    0.6095202654589532    0.5461290415874902
    0.4209082501266538    0.6268502846534194    0.5689921171426530
    0.5013869241789191    0.3381032793016954    0.5547036607920575
    0.5847932711078747    0.3612501091653008    0.5213097052470700
    0.4402943186341390    0.3870355382115110    0.5063266214639562
    0.4989799322708192    0.6630846470975081    0.5347155938598733
    0.3389925031883308    0.5086488213572367    0.5023711999798135
    0.6154339778983835    0.5700581121054615    0.4755092245581412
    0.6564962247364180    0.4862233846188773    0.4861401400258704
    0.3583431045943707    0.5985190554292119    0.5093085243110789
    0.6629257665082102    0.3942825399413827    0.4868021757046537
    0.4430070474019432    0.6195282784061438    0.4765735938491319
    0.5138636927244553    0.3404626522010948    0.4646827758624575
    0.5361550792997412    0.6177003721824347    0.4615791011165600
    0.3985520627923776    0.4528284814702704    0.4593973980299131
    0.6551242358931287    0.5259730444162878    0.4033430576904682
    0.6005700924698661    0.3560510577091801    0.4298953958487127
    0.6501339942587905    0.4340586228597744    0.4061703131420998
    0.4582086617244924    0.3983345908379751    0.4155234182037614
    0.5704760878241597    0.5646513528174590    0.3950410179680068
    0.3990558422553044    0.5447320919701332    0.4419195109740088
    0.5251202879383042    0.3468977603749117    0.3756785146830541
    0.4779727868095034    0.5741882735422605    0.4047472757971674
    0.4469744011971052    0.4868778337587956    0.3887978619745180
    0.5938287159953034    0.4837141121287808    0.3497006999477025
    0.5126762858424772    0.4331867355600558    0.3475380839295469
    0.5982389948554361    0.3922615391871985    0.3433131918226572
    0.5125329306414207    0.5240410843753075    0.3353663215769111
