Au41 rank 1
1.0
   29.3665051095926373    0.0000000000000000    0.0000000000000000
    0.0000000000000000   28.4598282539331109    0.0000000000000000
    0.0000000000000000    0.0000000000000000   30.6062529829277850
  Au
  41
Direct
    0.5094159319518897    0.4618956058543762    0.6731261895606595
    0.5383302206563585    0.5295516417059531    0.6125066826814292
    0.6354153742789684    0.5480069892077595    0.6119605755872034
    0.6006270528962168    0.4706282971414416    0.6530563168268843
    0.4492730129758273    0.4049051513910902    0.6297627014576272
    0.5413811339183705    0.4148904961612360    0.6005760777201881
    0.5684453139430242    0.6051426027341070    0.5657090731453550
    0.3979222095304789    0.4337215239427250    0.5598892896267712
    0.4492454720931063    0.4996820142753409    0.6091794250141659
    0.6610954800499868    0.6281204323798205    0.5696994491547939
    0.6074307294901337    0.4703039491896316    0.5617947921616560
    0.4761191333209481    0.5780910941156050    0.5607018035212196
    0.4748351962840173    0.3755598721740060    0.5483060640250436
    0.3978351312261811    0.5297379653030627    0.5405723369129611
    0.6397139125519419    0.5498540386610435    0.5196817541465547
    0.5395774862298927    0.5230549795775161    0.5121005533979567
    0.5576387841132718    0.4077079658174453    0.5123329958781840
    0.3567056422674755    0.4647808234409315    0.4842190159047359
    0.3407599551516451    0.5605175866513634    0.4761730704863146
    0.6141262180094265    0.6424288141006964    0.4935209253879603
    0.5171071064132311    0.6277620537299242    0.4929660555692666
    0.4103184874707422    0.3846997384705594    0.4807044079535361
    0.4680481647206432    0.4632479352705939    0.4962513837216422
    0.4265775189228024    0.6017448221970433    0.4867114522310917
    0.6117815836510244    0.4738661403663342    0.4699987482930700
    0.4992646026599821    0.3519482663005019    0.4648501650553302
    0.4841702969833722    0.5325963344934033    0.4390454456091792
    0.3894675106616370    0.5903788512090091    0.4044723014106796
    0.6124248337795143    0.5657126490870853    0.4348395996937742
    0.5522002166353143    0.4177019966451444    0.4221132523187797
    0.3401343713465850    0.5049869620664579    0.4035005605526262
    0.3645365955321260    0.4122792830486262    0.4070264023645939
    0.5664839394453081    0.6491723341392884    0.4181197642125263
    0.4760780740667355    0.6274343758728509    0.4101509134473214
    0.4596881277116944    0.4072298984246868    0.4029861616798129
    0.5993526842372230    0.4888699535703069    0.3824737754698587
    0.5450328713519773    0.5688563529180182    0.3713117282320454
    0.4565830849179203    0.5589501867567043    0.3458954171758691
    0.5086268908246637    0.4774139378007763    0.3621554428716885
    0.4147490143874242    0.4709992634272618    0.3536215782136093
    0.3657121810800866    0.5467606744139489    0.3260304262663873
