Au41 rank 7
1.0
   28.5482217997274041    0.0000000000000000    0.0000000000000000
    0.0000000000000000   29.5362293599139285    0.0000000000000000
    0.0000000000000000    0.0000000000000000   30.1484782276909762
  Au
  41
Direct
    0.5325690602706012    0.4421762336234257    0.6656001225184959
    0.4509834515822304    0.4889238430202045    0.6633621217958322
    0.6122254603806327    0.4813283908863190    0.6345572070499458
    0.5331387431622380    0.5358685019010714    0.6392743336124093
    0.4671163207234182    0.4215981216086304    0.5993884485804857
    0.4456236614682603    0.5648145441417964    0.6124421054710258
    0.3958888043908413    0.4833977805090903    0.5887164735251209
    0.5244465380882276    0.6116848390821765    0.5853914332231001
    0.5646792146726591    0.4129390540397622    0.5851665317627215
    0.6077350054243721    0.5596715221436234    0.5880304634465825
    0.6249639397747100    0.4734903710748836    0.5444001745033238
    0.4324215838745978    0.6286686646660140    0.5468260852690521
    0.5129259812605730    0.6461497880720161    0.4976856558001803
    0.4144975103905534    0.4214091560144204    0.5221353560926604
    0.3612878175981781    0.5673924170379646    0.5689822424234505
    0.4891419498215697    0.5528234324451764    0.5211932094917505
    0.4983562290145094    0.3705699846961895    0.5288354801758042
    0.6005603900892595    0.6307342362793029    0.5292787404529833
    0.3615580763596539    0.4990118354848029    0.5055554868942398
    0.5867514213083735    0.4028842817233882    0.4962174444160168
    0.6483279206778820    0.5529872997924279    0.5052991084390756
    0.4435770868996354    0.3691113182753111    0.4518393816406400
    0.4264785056473199    0.6623887743363265    0.4611156350577311
    0.4498881104516362    0.5001281238254581    0.4577799777868062
    0.5365235889231857    0.3377728732562962    0.4518981833108374
    0.3786126811791086    0.4356963138519582    0.4373311011765111
    0.5997616208877217    0.4890069230981692    0.4565204096083553
    0.5697884097456505    0.5783069316063152    0.4566412018891218
    0.3689312435889873    0.5912808945892125    0.4827603317370617
    0.5133574878262508    0.4656870050641654    0.5191182045927207
    0.5508203211018737    0.4233441776789343    0.4121436375058788
    0.3536199623907510    0.5252649411929973    0.4188527038754969
    0.4827983695533936    0.5962400797951869    0.4230561330008220
    0.4005978775058711    0.3805173157711037    0.3650022918006176
    0.5284649378126682    0.5151699898262119    0.4014001939528741
    0.4928416663909035    0.3563043989490213    0.3734523728957865
    0.3710640458690722    0.4657477262122275    0.3470588149596202
    0.3882811340874815    0.6126952412266846    0.3940242567836612
    0.4667741029882620    0.4479019541598902    0.3738567190125548
    0.4395948226278887    0.5361361767955560    0.3664100199173101
    0.3515087443587206    0.5549950058046925    0.3319158118984858
