Au32 rank 5
1.0
   27.8434821690322316    0.0000000000000000    0.0000000000000000
    0.0000000000000000   28.5069765467202956    0.0000000000000000
    0.0000000000000000    0.0000000000000000   28.0663558268074311
  Au
  32
Direct
    0.5497541950373923    0.4917126788482327    0.6431261517272463
    0.4851905629764148    0.5639517445811660    0.6315629545166759
    0.4547869632856857    0.4703726139258460    0.6335140001786281
    0.3891113393340048    0.5402771896515161    0.6236136599280284
    0.5166622317710682    0.6411931629750147    0.5815060111204083
    0.5771650836491428    0.5669754964564124    0.5898401761120683
    0.5278130493801960    0.4154066633288937    0.5890826416411682
    0.4324278315660827    0.3861780986819748    0.5948742474541864
    0.4220700323599603    0.6166652073532904    0.5758709332178265
    0.3785395737515293    0.4624082179932030    0.5665097594069050
    0.6023437130711059    0.4738171023378983    0.5624949339159758
    0.3591058049344406    0.5507017859699356    0.5311370916505664
    0.5667424076267890    0.6144782634248773    0.5004163610012965
    0.6399933181233032    0.5529454103915542    0.5179981498801687
    0.4741547793855989    0.6486519440680395    0.4949728183970170
    0.4915592811818546    0.3518704748119471    0.5243837458164431
    0.5662352362163764    0.4081461442151285    0.4976940262588317
    0.3743346330603634    0.6393193062817343    0.4950231824177316
    0.4050049160827742    0.3939925987584620    0.5016575739234566
    0.3586907176821160    0.4743543743605008    0.4707833237710384
    0.6350979763624217    0.4696745580305940    0.4694133161690632
    0.4885666244072865    0.3937883417725680    0.4372081474899979
    0.4246831467433249    0.6411833161350574    0.4108028182499213
    0.5943215923976815    0.5494502885544869    0.4310303724724968
    0.5590406071911054    0.4556318473444079    0.4105472364536199
    0.3960924920458696    0.4060922427076806    0.4073098909172158
    0.3648612978487259    0.5649989353228280    0.4339382041687499
    0.5171452686814425    0.6077100638952443    0.4155069738553854
    0.4686266748665540    0.4626085807338561    0.3704292195787473
    0.4427045131154795    0.5581162662191562    0.3676340494342201
    0.5355754712113153    0.5319577824386053    0.3563311438431694
    0.3727041349826227    0.4917094669443016    0.3734216001164543
