Au32 rank 16
1.0
   28.9000548631636853    0.0000000000000000    0.0000000000000000
    0.0000000000000000   28.9626044816453181    0.0000000000000000
    0.0000000000000000    0.0000000000000000   28.1475749701713625
  Au
  32
Direct
    0.4684836624397206    0.5787519558893650    0.6445583460467756
    0.5315439075765021    0.4406566312361930    0.6316460611086150
    0.4511883242055244    0.4890956874515457    0.6250510576530869
    0.5468364722758261    0.5328000629973487    0.6220065486062731
    0.3955488964232067    0.5562588560581101    0.5836988393810940
    0.5300507198326774    0.6177432881709443    0.5794944586821433
    0.4371005642763100    0.6428717831773682    0.5814254383428036
    0.4585837530512231    0.4052440515736395    0.5798032476739912
    0.6033567990995693    0.4713576269904448    0.5752109478483405
    0.3863909182538377    0.4650466817237001    0.5582035772548940
    0.6039457723318412    0.5644666980938354    0.5512824709833184
    0.5517109109591665    0.3915398097772747    0.5523491289627570
    0.3969059307845206    0.3877554985922614    0.5055007574170883
    0.6531152237666780    0.5048222847674028    0.4974145233423950
    0.4823619873051549    0.3478581887501178    0.5044835090411974
    0.3463822016578313    0.5315006516160474    0.5036333721449613
    0.6276338879249558    0.4142040206461547    0.4997753756056735
    0.5768977569099945    0.6368287720028879    0.4963841249484097
    0.3952532407749472    0.6114173635958140    0.5009056971763539
    0.4843576538820669    0.6521616448344907    0.4981270177726899
    0.3841384736549149    0.4629513534966315    0.4502060994507129
    0.6016403192134945    0.5623115381676855    0.4433523623066331
    0.5495808645573389    0.3894719702195150    0.4516895572855202
    0.4337867452473100    0.6396724320481405    0.4174127047610230
    0.6001525934800482    0.4684002996938672    0.4232735210714250
    0.4553799276231825    0.4022389244279413    0.4279018764330124
    0.3921345538727972    0.5530906463516185    0.4205174046203555
    0.5266599448782200    0.6145062562925625    0.4162293664035210
    0.4624268512385139    0.5730698623918240    0.3555854021035147
    0.5259963845418876    0.4354999982512617    0.3714432883335177
    0.5416912624344149    0.5279480709675682    0.3764961837630257
    0.4460016678386107    0.4842551333003923    0.3795844232658973
