Au32 rank 8
1.0
   28.2285134733410814    0.0000000000000000    0.0000000000000000
    0.0000000000000000   28.1820478711733244    0.0000000000000000
    0.0000000000000000    0.0000000000000000   27.2352118564080321
  Au
  32
Direct
    0.4125820510813862    0.4744342290671895    0.6211728314448731
    0.5777672159424162    0.5001635125291813    0.6050608434913911
    0.5042446692708503    0.4424265607816131    0.6340322000496929
    0.4880048743788466    0.5381143728587093    0.6225957230213575
    0.3554030060082322    0.4111433200159659    0.5714698756354171
    0.4338725462377079    0.3782248700511228    0.6195592295627685
    0.5877096068876300    0.4030595138387585    0.6040194143399311
    0.3979522852593297    0.5660309908592435    0.5964751013338773
    0.5604737293785143    0.5931739920424819    0.5864882850440626
    0.4712106527688994    0.6135972717167394    0.5551081005045275
    0.5108835594957221    0.3621251049869819    0.5619663178737903
    0.6448105051631846    0.4562027417531622    0.5449573886717537
    0.3571364826978532    0.5008699324799190    0.5352714757835106
    0.4213624515813287    0.3561768995197674    0.5213203799920811
    0.6142551640198152    0.5443978067960560    0.5193521589827923
    0.5868329470105824    0.3877196584554257    0.5028337706540045
    0.3917697861994853    0.5857164625805786    0.4983232487039246
    0.5487993079895233    0.6114359285582652    0.4880621316754883
    0.3589323624468748    0.4211363467764616    0.4728179290584614
    0.4620739763108743    0.6442794819214377    0.4606478988140102
    0.5029334529250037    0.3552996060609528    0.4617345455321569
    0.6173851156781062    0.4687387610447442    0.4498625512340156
    0.3673321366981618    0.5118939017147968    0.4356219154121025
    0.4145826638870626    0.3560432481310292    0.4223272115701958
    0.5992138895832575    0.5593406826503634    0.4207706022867189
    0.5071556533226006    0.5783361914965023    0.3998239555481055
    0.4104691489318719    0.5895613733153334    0.3978243188423748
    0.5703764304468009    0.3973361502065698    0.4043894397209895
    0.5445745525137848    0.4886669099339752    0.3802790017810335
    0.4800480543284553    0.4139446887888921    0.3768115630793168
    0.3842219792649734    0.4364848588080386    0.3757684140487903
    0.4496515131598193    0.5064991247787536    0.3660086760474495
