Au32 rank 15
1.0
   27.4765406255047608    0.0000000000000000    0.0000000000000000
    0.0000000000000000   28.7030578525434095    0.0000000000000000
    0.0000000000000000    0.0000000000000000   29.4001972280143846
  Au
  32
Direct
    0.5060835116344767    0.4645360188583154    0.6572837849041807
    0.5251937220587752    0.5546948317234839    0.6335794119693007
    0.4289801946080792    0.5172124996768966    0.6267587380310055
    0.4464860059997554    0.6100542123697127    0.6187381242744414
    0.5906738057476772    0.4833142722034068    0.6105386678365849
    0.4367899378727845    0.4233789816976796    0.6029345045158213
    0.6106284715045845    0.5749463967127690    0.5906432991114681
    0.3627549672972670    0.4771007031721480    0.5692279204547166
    0.5379070383328617    0.4011492175131706    0.5946659529517180
    0.5294146441552652    0.6240819288529559    0.5662217198195886
    0.3869378958267385    0.5670915605569544    0.5536162471935052
    0.6238146057097379    0.4169043357056834    0.5506463043709637
    0.4363836420302257    0.6497215690590485    0.5352902983885574
    0.4679823059447749    0.3495758302538844    0.5528908947758810
    0.6393669519915688    0.5083485313942361    0.5302719410459094
    0.3997918378692976    0.4105050147677508    0.5139856016156319
    0.5960607681454411    0.5941222960949564    0.5006946580907006
    0.3810587123468109    0.5018528269786271    0.4812668962197643
    0.5500163285479091    0.3751684715056788    0.5032544028984171
    0.5096714104135701    0.6350197487803996    0.4752121919568512
    0.4094573668524523    0.5923801607150602    0.4662434604915836
    0.6085550098677248    0.4428599753445512    0.4624460244971497
    0.4607662600406642    0.3552982668017701    0.4608408029090680
    0.6371122636595649    0.5318184485059499    0.4413011787276772
    0.4224855671206206    0.4351134812183748    0.4265132291275312
    0.5623721871829522    0.5860438758115666    0.4119357125088728
    0.4252720528303060    0.5265841760480924    0.4005341295968108
    0.5285202812282231    0.4078965007457200    0.4177052294125977
    0.4655628107991506    0.6165875509918299    0.3943380749496747
    0.5705233773283089    0.4888785921832161    0.3872617501801708
    0.4786920699337238    0.4574893964766909    0.3541244462520500
    0.5062361571219344    0.5474106073053046    0.3447626178833818
