Au
 1.0000000000000000
    28.6059583659999994    0.0000000000000000    0.0000000000000000
     0.0000000000000000   28.0737010110000007    0.0000000000000000
     0.0000000000000000    0.0000000000000000   28.0681041009999994
 Au 
  32
Cartesian
 16.5046099999999996 13.3890399999999996 18.0499200000000002
 12.1203699999999994 15.1137400000000000 17.9615599999999986
 13.8024299999999993 12.9532200000000000 17.9791699999999999
 14.8224099999999996 15.5391300000000001 17.8355099999999993
 15.6044699999999992 11.2065599999999996 16.6675000000000004
 17.2790600000000012 15.4527599999999996 16.4293900000000015
 12.9165600000000005 10.6449099999999994 16.8385099999999994
 15.7026199999999996 17.7069200000000002 16.4416300000000000
 11.3369599999999995 12.8833300000000008 16.5850299999999997
 13.0155600000000007 17.1310099999999998 16.3447400000000016
 17.7218499999999999 12.7753200000000007 15.6705699999999997
 10.8946400000000008 15.4631000000000007 15.5352599999999992
 16.9204700000000017 10.5403699999999994 14.3494499999999992
 18.6095199999999998 14.8149800000000003 14.1114099999999993
 14.2499400000000005 10.0076199999999993 14.5335400000000003
 17.0250400000000006 17.0377499999999991 14.1395800000000005
 11.5860299999999992 11.0581200000000006 14.4805399999999995
 14.3619100000000000 18.0879599999999989 14.0854400000000002
 10.0031999999999996 13.2651500000000002 14.2122799999999998
 11.6912599999999998 17.5376599999999989 13.9726999999999997
 17.4346199999999989 12.7278500000000001 12.7926599999999997
 11.1723499999999998 15.1933900000000008 12.6670200000000008
 15.4158299999999997 10.9279100000000007 12.1107800000000001
 17.1592300000000009 15.3425300000000000 11.8639500000000009
 12.7771799999999995 10.0616000000000003 12.2524700000000006
 15.8269800000000007 17.7815699999999985 11.8182700000000001
 11.4427299999999992 12.4908500000000000 12.0309200000000001
 13.4964300000000001 11.7907399999999996 10.2734299999999994
 13.1875999999999998 16.9085199999999993 11.7827699999999993
 15.0992700000000006 15.8453300000000006 10.0449000000000002
 12.8882700000000003 14.4048499999999997 10.6747200000000007
 15.7073900000000002 13.2938700000000001 10.7346100000000000
