Au32 rank 19
1.0
   28.8044160057706584    0.0000000000000000    0.0000000000000000
    0.0000000000000000   28.4774806493475587    0.0000000000000000
    0.0000000000000000    0.0000000000000000   28.2725146367896407
  Au
  32
Direct
    0.5027593826856692    0.5151838702103836    0.6466507633881600
    0.4088854996700441    0.4999988233178300    0.6388920837308066
    0.5295708702785186    0.6059756835757317    0.6296916520205615
    0.4690716417424662    0.4254546604144500    0.6319098433000157
    0.5636068589185573    0.4432438852033823    0.6279634726928434
    0.4406627372610415    0.5815285900312400    0.5997696445663556
    0.5915974037658881    0.5358615017477676    0.6160309922174078
    0.5313758241935418    0.3570281184648968    0.6019217499016315
    0.6463042196479533    0.4622287612713604    0.5846167898845209
    0.3888995660107099    0.4314037795094294    0.5752206487133713
    0.4412033330290870    0.3521645849294504    0.5731004381033827
    0.4919494746308629    0.6468953205388830    0.5511126243524537
    0.3774134825017911    0.5279784116684909    0.5516048756462072
    0.5933871264786585    0.3960975956563463    0.5411635252950516
    0.5776314812462853    0.6062311079167538    0.5437622746076192
    0.4270143547808579    0.5981671267250757    0.5027215459236967
    0.6512866382270937    0.5476727075465776    0.5403902680121785
    0.5104008271016818    0.3602496311514547    0.5055907709674375
    0.3485368121356210    0.4554309955117982    0.4920437144895491
    0.4199524943862324    0.3918571937876483    0.4875834976569124
    0.6317193545839732    0.4684760918212588    0.4872021536083483
    0.5172127654440904    0.6107111378723269    0.4660927175974607
    0.3683175987407034    0.5416245668888040    0.4551274445570536
    0.4149819880036965    0.4639312506508360    0.4207691299337074
    0.5785772576114764    0.3971620784188518    0.4470625380339124
    0.6011903882399896    0.5601220711157364    0.4601837789136379
    0.4847450909894802    0.3969806981428497    0.4189091776554898
    0.4522934580625643    0.5570094894396707    0.4157421396140574
    0.4945296446104864    0.4831266644542559    0.3716270576754322
    0.5898124564818916    0.4844238897208223    0.4023252907861364
    0.5417273269130428    0.5662847411067099    0.3847957971472455
    0.5539414785700029    0.4098371253974520    0.3537710541191628
