Au32 rank 2
1.0
   29.5584062891023294    0.0000000000000000    0.0000000000000000
    0.0000000000000000   27.4245806069531639    0.0000000000000000
    0.0000000000000000    0.0000000000000000   28.9109074282854763
  Au
  32
Direct
    0.5392960127894193    0.5406781249595017    0.6249547083126035
    0.4479538211044927    0.5378535701546587    0.6398728781399682
    0.4921799488240616    0.4510445941537478    0.6287132703839735
    0.5842872927982969    0.4537483121661364    0.6197137196839516
    0.4812198780211401    0.6111374143310250    0.5853748788968538
    0.4050831295940728    0.4660974222911446    0.5909878291400023
    0.5730723585326765    0.6174750052607889    0.5754728699034277
    0.4468029686681188    0.3773368550851701    0.5849942700090417
    0.5381606084630053    0.3839020254088349    0.5714219734013273
    0.6143898386705237    0.5288311597021590    0.5655843906946735
    0.3983288666626481    0.5649309488742084    0.5643055349526955
    0.6138262851251028    0.4318540002148137    0.5325112711242413
    0.4287234801498855    0.6422723083502273    0.5132906402013067
    0.5205118918384138    0.6426316156833531    0.5013808368504959
    0.3506611076525510    0.4939009339153830    0.5192235568450595
    0.3970734887615736    0.4080259825673453    0.5107122137921390
    0.6028999369101441    0.5919213372760800    0.4892309220708001
    0.4794756624203336    0.3573442711054654    0.4985655437317733
    0.5712638173171481    0.3577032100623656    0.4866571321605986
    0.6493437315624763    0.5060664902104597    0.4807257409244498
    0.3861656408862120    0.5681143598093489    0.4674277066487458
    0.6016658226552194    0.4350411705319767    0.4356455871765594
    0.4618380878611531    0.6160561684226856    0.4285324033567890
    0.3856218665713983    0.4711360980781047    0.4343725804891529
    0.5531876819626252    0.6226390919696194    0.4149452031504314
    0.4269208073463224    0.3824896885136225    0.4244635596127468
    0.5187700423212789    0.3888419728801509    0.4145699900219113
    0.4157226045593550    0.5462144464289189    0.3802311697091947
    0.5949203624125190    0.5338835404188279    0.4089558885585550
    0.4606988972246761    0.4592906672364427    0.3749862056738149
    0.5520455761954586    0.4621194355897788    0.3600862488193740
    0.5078219848845520    0.5489219350037050    0.3712351783979914
