Au32 rank 1
1.0
   28.0794989975669296    0.0000000000000000    0.0000000000000000
    0.0000000000000000   28.9366436002806964    0.0000000000000000
    0.0000000000000000    0.0000000000000000   27.7548089418295483
  Au
  32
Direct
    0.4588614741670756    0.5653246174100508    0.6389948967244532
    0.4619774747345221    0.4709914992065628    0.6340674865609623
    0.5496414510687913    0.4297441014604063    0.6336279516198053
    0.5463545163630050    0.5242347037861088    0.6323170504029558
    0.3896028628709651    0.4272021655201674    0.5865059140107312
    0.3899403868208664    0.5216888157270432    0.5863533303175397
    0.5264347249864502    0.6078292239081720    0.5836356733529029
    0.4786484336256364    0.3892345062860709    0.5810057733564014
    0.6156537811082300    0.5699178636822470    0.5819985830270974
    0.6150483170600873    0.4754374261300313    0.5782275651512496
    0.4297722099544630    0.6063007447714991    0.5551902731729077
    0.5733044613825331    0.3919962401687718    0.5465222592181481
    0.3566401458287491    0.5655699527744148    0.5058563037463802
    0.3621424392352686    0.4712180325318321    0.5038293865293868
    0.4963831423998880    0.6537377804088826    0.5030477864269621
    0.4169744136676581    0.3893973320317834    0.5005409708530164
    0.5829290357849831    0.6105690702145802    0.4994165804609554
    0.5035494056295037    0.3462227614647355    0.4969411660007954
    0.6377879685610974    0.5287629619701448    0.4961370959726891
    0.6432967409976809    0.4343969018098725    0.4941463701620359
    0.4266190000389345    0.6079813167246668    0.4534572218065805
    0.5701596656409065    0.3936856431694419    0.4448035961500862
    0.6103071840141421    0.5727635017414680    0.4134664254729613
    0.3848750036963563    0.5245444584723503    0.4217562149918778
    0.5212737224941779    0.6107541595436616    0.4189556386856049
    0.3842872023522188    0.4300685618165117    0.4179913806739139
    0.6099767508962003    0.4782755411731495    0.4136370405373026
    0.4502864658017481    0.5702260561733830    0.3663527456205345
    0.4734994861961945    0.3921679049033799    0.4163574946438553
    0.5379537934223608    0.5289863434619679    0.3658981557462810
    0.5410643269846545    0.4346516558911840    0.3610091702552797
    0.4535752110526737    0.4757579426656561    0.3676615047375415
