Au32 rank 17
1.0
   28.8426062627757531    0.0000000000000000    0.0000000000000000
    0.0000000000000000   28.4869557294459241    0.0000000000000000
    0.0000000000000000    0.0000000000000000   28.2951646829939278
  Au
  32
Direct
    0.5148583561785810    0.4448753512084790    0.6465654414208879
    0.4697180857647849    0.5298778321129727    0.6420946456007037
    0.5636332209847537    0.5231443931667675    0.6220218313712151
    0.4245513599083127    0.4451051426698560    0.6180780376145105
    0.5205551708949153    0.6082938561931084    0.6187170210262695
    0.3785640783709521    0.5290185778378261    0.6174038579075105
    0.5749885708649295    0.4351707971354480    0.5730589050697292
    0.4912255000018892    0.3874847444252876    0.5729460248270134
    0.4300884774810408    0.6051113068947814    0.5908760767467653
    0.6353588219845093    0.5103937552167483    0.5621947989736834
    0.3972481726846158    0.3801680161450577    0.5534742554311133
    0.5803427467153980    0.5890103546068371    0.5468112345539332
    0.3596749914475024    0.4671718721361192    0.5455001311150093
    0.5000814325576273    0.6398234283191591    0.5298422104178705
    0.5441999809430179    0.3905571880740559    0.4906062380644923
    0.3631043495368950    0.5652695620689897    0.5288466572725711
    0.6204846811527186    0.4475635759287298    0.4901373558818189
    0.4066031213392492    0.6471023832129273    0.5079888901375662
    0.4586129835516493    0.3512107260497748    0.4872035331578146
    0.6241998276875736    0.5472640232182940    0.4731656631000472
    0.3475693552278997    0.5033527661633662    0.4574517922560444
    0.5518281921373014    0.6063430562309918    0.4538357174889676
    0.4690825785770198    0.6484111678997119    0.4365719360129685
    0.6513837634593105    0.4836009337083537    0.4060389534058612
    0.3940043934830326    0.4202813055842367    0.4632775273243364
    0.3995811656145495    0.5801732393208380    0.4358581989646359
    0.5725483419931596    0.5355098049296443    0.3907732504626710
    0.5690221597973503    0.4352729433334132    0.4077945146290249
    0.4779294210227024    0.4115853068745679    0.4165267829078029
    0.4834074955819563    0.5671098609812397    0.3900209932806316
    0.4219616548053450    0.4910133308600063    0.4006920969961328
    0.5032335198024531    0.4802681740577126    0.3540795124241510
