Au32 rank 6
1.0
   28.8455355741671724    0.0000000000000000    0.0000000000000000
    0.0000000000000000   28.1558315037535536    0.0000000000000000
    0.0000000000000000    0.0000000000000000   27.6187307099846890
  Au
  32
Direct
    0.4359424198308032    0.5094605626858257    0.6383738868253838
    0.5287517760661173    0.5219026236341971    0.6276960736260122
    0.4898767411464421    0.4309900915910289    0.6235336941155283
    0.6206629043113846    0.5316508292691094    0.6039461839877618
    0.5822100472521562    0.4431745046602549    0.6019767765414206
    0.4649759916250031    0.5871791976587835    0.5879515660245177
    0.4007246694372786    0.4389327909575919    0.5812823576643609
    0.5435815059256915    0.3594747619399739    0.5786180213162748
    0.5583503952276585    0.5974155730524876    0.5722832222647709
    0.4494244852799118    0.3567109145156794    0.5723523152774170
    0.3835895935108359    0.5348865329310026    0.5606587218582001
    0.6521325014281599    0.4645997345058657    0.5376169693510739
    0.4043693751818439    0.6195210501405326    0.5185463512846256
    0.4961844537619891    0.6394239492946845    0.5091271441162550
    0.3477677762227090    0.4640371505055706    0.5031300164438007
    0.6296003729009740    0.5538949241645256    0.5072832908881466
    0.5893837304629519    0.4005452775636484    0.5033144271407611
    0.4091059313128077    0.3907698418381295    0.4905295804911026
    0.5901302948929743    0.6385329585454607    0.4895317319804603
    0.5031940110423165    0.3602579809246570    0.4878577110581934
    0.3763899411093030    0.5460147212798263    0.4596313957491106
    0.6163015888588516    0.4759951954566223    0.4463083818772189
    0.4418906373528385    0.6109295014394108    0.4280206936089658
    0.3959555510050038    0.4566198937658109    0.4174013264462849
    0.5917305338334923    0.5677565245947496    0.4170074508865065
    0.5465957842441717    0.4123886474351844    0.4154719441247189
    0.5296193876203372    0.6432702126908624    0.4139733824598977
    0.5062013692749585    0.5619077774793049    0.3669457539334885
    0.4140632882337255    0.5386691778797942    0.3683271816405897
    0.4565341728526850    0.3819982045191231    0.4052427927202756
    0.5698884095529996    0.4902158134059680    0.3620756309147912
    0.4783742880511537    0.4665892287633746    0.3636645725132127
