Au32 rank 7
1.0
   27.8609517357470367    0.0000000000000000    0.0000000000000000
    0.0000000000000000   28.7974150393668111    0.0000000000000000
    0.0000000000000000    0.0000000000000000   28.4762434805063336
  Au
  32
Direct
    0.4937268454083349    0.5348578564169097    0.6477650872686422
    0.4443841633370791    0.5920438165197783    0.5900211901142163
    0.5653113919203283    0.4867810621306309    0.6018283748643984
    0.4831704007251775    0.4415015256970651    0.6355701809057900
    0.4143619873537315    0.4987616735218934    0.5989106624374952
    0.5476913569814444    0.5797278380216699    0.5815638382046237
    0.5343580178015059    0.3995905722209573    0.5669709355684783
    0.4315715312466497    0.4130915426221844    0.5582216704368972
    0.3587019817638099    0.5615444838952504    0.5533274660705105
    0.4998286543904825    0.6517504045889507    0.5395280929469369
    0.6197344932678287    0.4365367037584138    0.5400100402027007
    0.6148014735016295    0.5311149660091987    0.5309521842457723
    0.3701308926379758    0.4744249530773361    0.5146026673737942
    0.4118877508223994    0.6258519687134693    0.5044958482054458
    0.4814983319961572    0.3490911318289980    0.5061829353335854
    0.5744300114555851    0.6111994414088880    0.4927833983139954
    0.5648788297732558    0.3917164069385532    0.4727599846436079
    0.4120311614999368    0.4029333266363022    0.4634201009497760
    0.3595645439611638    0.5544169637817632    0.4579770809343766
    0.4920288110799926    0.6408618514665601    0.4450411330610233
    0.6207644964675452    0.4673542392695429    0.4506230380968487
    0.6412817804103799    0.5606539590755826    0.4442394135518776
    0.3610101133167288    0.4687800860321248    0.4182346447572857
    0.3995997729614609    0.6265588080887691    0.4096674143443088
    0.4893103073238700    0.3690120452735635    0.4129243096978597
    0.5633357889452950    0.5949907689175136    0.3967639447511901
    0.5500477990573015    0.4376897041088534    0.3873386782419844
    0.4485206839676437    0.4474851242871291    0.3793073308861682
    0.4130045377209719    0.5367814514008160    0.3750427121395513
    0.6050409874729376    0.5133823787017830    0.3675684165475999
    0.4772112348596715    0.6073177635370552    0.3549748009737483
    0.5085812154521043    0.5180819139040066    0.3524451554989906
