Au32 rank 11
1.0
   28.5708572505909046    0.0000000000000000    0.0000000000000000
    0.0000000000000000   28.2717443830936297    0.0000000000000000
    0.0000000000000000    0.0000000000000000   28.0300885837175464
  Au
  32
Direct
    0.4606752682616588    0.5040196997193970    0.6229088623871820
    0.5405494260530567    0.4393726527439914    0.6057207299534906
    0.4522814371907252    0.4086825224056577    0.6247525602356275
    0.5516188836342618    0.5279093366226038    0.6422611251444834
    0.4940769349794275    0.5911270237736918    0.5961343902653894
    0.5895594241622042    0.5925605353326060    0.5796363899951138
    0.3925219279532339    0.4626701979097695    0.5667513965454525
    0.6086109252998635    0.4977092576047516    0.5677065755519514
    0.4069102522628818    0.5594818844371354    0.5640288519242591
    0.4066280855729064    0.3656836488629075    0.5523645434078622
    0.5039854559633004    0.3682485108635850    0.5494610968385346
    0.4471067838412948    0.6450117737640605    0.5337110564180623
    0.5877264463615554    0.4122223297516008    0.5248680560945581
    0.5354863683074329    0.6225164055331294    0.5052054271124586
    0.6123226302720830    0.5639357204142376    0.4903367962699194
    0.3596708065531288    0.5139729173427202    0.4908566469129323
    0.3709022978064868    0.4179111915323936    0.4803171772867049
    0.3745525180047592    0.6089467274184236    0.4836480287616231
    0.6495624366866189    0.4734196659099582    0.4837441595075164
    0.4501683607589381    0.3575101695885555    0.4663734492042640
    0.5447619825160014    0.3539307216992928    0.4614617344484747
    0.4625825821784003    0.6198868838888832    0.4394263911938696
    0.5883180101768539    0.4296520804677814    0.4220103782819082
    0.5503448037122691    0.5840525329452714    0.4164453111062492
    0.3940885338998281    0.5578506803943604    0.4043636900834654
    0.3508713264424734    0.4726440119437935    0.4019585805434810
    0.6202046190570054    0.5200766030400773    0.4030698972308928
    0.4052568625145704    0.3935230347496502    0.3896680063868514
    0.5000236801420322    0.4060712190273956    0.3913263949952919
    0.5359243237633554    0.4933146539011594    0.3675239287524379
    0.4408831259817483    0.4798697068830165    0.3631043379380990
    0.4765340243190654    0.5691866240010283    0.3571545500718434
