Au
 1.0000000000000000
    29.0629163760000004    0.0000000000000000    0.0000000000000000
     0.0000000000000000   27.4338014319999992    0.0000000000000000
     0.0000000000000000    0.0000000000000000   28.1713687539999995
 Au 
  32
Cartesian
 12.7449100000000008 12.5643799999999999 18.1153699999999986
 14.4564400000000006 14.7188400000000001 18.0952899999999985
 17.1302599999999998 14.1766600000000000 17.8985400000000006
 15.3853200000000001 12.0798100000000002 17.6554700000000011
 13.5607600000000001 17.0743299999999998 16.9999800000000008
 11.8858499999999996 14.9196200000000001 17.0132900000000014
 16.1917800000000014 16.4588399999999986 16.7096100000000014
 13.3870299999999993 10.6677199999999992 16.2286700000000010
 17.6748399999999997 12.1991499999999995 16.0817100000000011
 16.0298799999999986 10.0122099999999996 15.9793099999999999
 11.2175100000000008 12.3917400000000004 15.8488299999999995
 18.2269199999999998 14.9158000000000008 15.5044100000000000
 10.0631599999999999 14.7031100000000006 15.0111200000000000
 11.9826099999999993 16.7069000000000010 14.8082799999999999
 14.6350400000000000 17.5269900000000014 14.5267499999999998
 17.3543200000000013 17.2733999999999988 14.3928499999999993
 11.8248499999999996 10.5024099999999994 13.9741700000000009
 19.0043100000000003 12.8918999999999997 13.8078500000000002
 14.4774799999999999  9.9695800000000006 13.7213200000000004
 17.1518900000000016 10.8653399999999998 13.6364599999999996
 10.9877400000000005 12.9344999999999999 13.0717400000000001
 18.1156800000000011 15.2469400000000004 12.7302000000000000
 10.7201900000000006 15.6623000000000001 12.5480199999999993
 13.1501500000000000 16.8478800000000000 12.3177400000000006
 15.8972700000000007 16.9127599999999987 12.1177299999999999
 13.0633400000000002 11.5845699999999994 11.7880900000000004
 17.4487699999999997 12.7170699999999997 11.5602099999999997
 15.6157299999999992 10.7027999999999999 11.3651199999999992
 12.4421700000000008 14.1646500000000000 11.0807300000000009
 14.3132800000000007 15.8542299999999994 10.0760000000000005
 14.9008400000000005 13.1412800000000001 10.3789899999999999
 16.9097200000000001 15.0639199999999995 10.3044300000000000
