Au32 rank 3
1.0
   28.3929760480758091    0.0000000000000000    0.0000000000000000
    0.0000000000000000   28.1954447345821322    0.0000000000000000
    0.0000000000000000    0.0000000000000000   28.2290846120531569
  Au
  32
Direct
    0.4983229372165106    0.4589988999011281    0.6200346452669082
    0.5928300213797124    0.4803327657628579    0.6247073208132691
    0.4404925624399035    0.5403234227591966    0.6103495141501459
    0.4049354785217436    0.4510761672590390    0.5989138448396277
    0.5288413984834118    0.5499922380492492    0.6449086612572402
    0.5633517075727392    0.4113912839609046    0.5632504919302963
    0.5935816404433861    0.5654776534215279    0.5738705226197188
    0.5051057019769406    0.6082511989902482    0.5710953935998785
    0.6335343009246280    0.4806278300949087    0.5380849690555268
    0.4097820811399960    0.6118122224575469    0.5537082423591820
    0.4687554709698882    0.3931717348113125    0.5537285413093683
    0.3745031371412251    0.5218832887520010    0.5389583795879179
    0.6211953215621739    0.4006953204381339    0.4858164087023518
    0.6469798545489580    0.5655612044603521    0.4935859203280097
    0.5667279561770509    0.6201342715633735    0.4970384559866050
    0.3855744747270607    0.4283588750846423    0.5074675703511702
    0.4710963092985861    0.6386185398792446    0.4843784842312273
    0.5309340790216706    0.3678740509064336    0.4815916043483471
    0.6323242976310138    0.4858055903901839    0.4390452649059062
    0.4353200605289411    0.3550851390912730    0.4711257711266674
    0.3900604070109360    0.5839240196832873    0.4631847936904567
    0.3529806326399106    0.4965570557119800    0.4471217670966099
    0.5978917546175976    0.5746784774593472    0.4114907417665648
    0.5727385022710896    0.4150765243326565    0.4035374456689089
    0.5331348456980376    0.6450246470609694    0.4096057044198826
    0.4145726328643891    0.4315194831022009    0.4114945316470487
    0.4886600662070420    0.3715332081190469    0.3921283046816808
    0.4415140177511707    0.6210288971722908    0.3915740104485906
    0.4227389863906855    0.5259907792924547    0.3861257099148831
    0.5843111173775524    0.4973663245611752    0.3549191705626716
    0.5118426741053989    0.5603300494689727    0.3626412801500752
    0.4936018936672306    0.4639292908774547    0.3627233228596916
