Au32 rank 18
1.0
   27.7380261436613296    0.0000000000000000    0.0000000000000000
    0.0000000000000000   28.5865463275001304    0.0000000000000000
    0.0000000000000000    0.0000000000000000   28.1017821813830366
  Au
  32
Direct
    0.4630027904984886    0.4966831228911451    0.6446452552395738
    0.5560094802110859    0.5303037180183690    0.6293754068421973
    0.4816450235094415    0.5908216814222207    0.6286183835164562
    0.5397833478620643    0.4364810221847868    0.6429453912764787
    0.3882513645245472    0.5543633753097249    0.6130930580288200
    0.3764889215363718    0.4615698295639155    0.6101036846762804
    0.6087658515165246    0.4615852363932891    0.5787149439486973
    0.5603723251940153    0.6111045801759341    0.5727939572770325
    0.4045259355363414    0.6484718141146261    0.6149296974112995
    0.4558640664817361    0.4068268155302356    0.6020020386836490
    0.6393352320332264    0.5516483475874387    0.5817439615397642
    0.3570704746846019    0.5109532414347903    0.5277704600889689
    0.5459588363485922    0.3879653291317998    0.5586326723035715
    0.4724039120651927    0.6463284843873289    0.5446822783306829
    0.3802676733586907    0.6070567292148727    0.5300451801725153
    0.4623499661224935    0.3504089966522935    0.5243715327041613
    0.3911787061859243    0.4198424652767578    0.5241744901300436
    0.6296142147243156    0.6043757944848546    0.5018301570978800
    0.6152276015458862    0.4138159637311291    0.4942279664700044
    0.6331341169238581    0.5077411422224941    0.4926416735351590
    0.5256716847550699    0.3915745562978115    0.4601089529140674
    0.5398183717036457    0.6328232931262081    0.4766878377965748
    0.4284908258431284    0.3846514051620799    0.4403199309345743
    0.3646312199228788    0.5635576521130461    0.4467319009423716
    0.3914880918082351    0.4726483667701181    0.4408340418191286
    0.4422792653951066    0.6225874792926863    0.4535504234106440
    0.5776766257552625    0.4662424638226921    0.4216853752634074
    0.5917060772259560    0.5634356186228520    0.4231631820310009
    0.4800976720164702    0.4516763136964160    0.3957944698465324
    0.4406754657763001    0.5416532625327733    0.3905585637061433
    0.5116230281410262    0.6102170034511123    0.3866005618237616
    0.5323674134469450    0.5215455303258124    0.3574740650899448
