Au32 rank 9
1.0
   28.6769209041571145    0.0000000000000000    0.0000000000000000
    0.0000000000000000   27.5498405908596808    0.0000000000000000
    0.0000000000000000    0.0000000000000000   28.0593503953782069
  Au
  32
Direct
    0.5183071164849649    0.5663609636686673    0.6434462517306324
    0.5104758877764698    0.4666909632563030    0.6443516877946136
    0.4325119840166947    0.5268794100399599    0.6290119329570020
    0.4248525300572892    0.4257293421348363    0.6414717356095722
    0.5788560735087092    0.4123713520926781    0.6033953158720696
    0.5892385271483603    0.5117535303636828    0.6077294807446896
    0.3759276362759730    0.5630172840343987    0.5573943781982473
    0.4619791658595283    0.6065093097543084    0.5751534330891704
    0.4892459612584148    0.3862436216992063    0.5809073908711223
    0.3548221708448073    0.4764592018917433    0.5990340551719675
    0.5572742286237149    0.5995160557329585    0.5602819970863843
    0.3985230999757674    0.4017152812306871    0.5491987813734027
    0.6222120456499974    0.4574755377647522    0.5295138880938098
    0.6414878047477158    0.5571116515253308    0.5411072757360849
    0.5587534524733564    0.3824298024653682    0.5125079097814397
    0.4077411321942989    0.6372500795973346    0.5006602036871349
    0.3506460640923630    0.4787624889706036    0.5026165181182090
    0.4655417577243413    0.3674214693864903    0.4880063746759759
    0.6491615035697494    0.5147314945255738    0.4538780399065006
    0.5876164163842653    0.5920133288976924    0.4663716494685171
    0.3503364903503569    0.5675313154446667    0.4615576000080095
    0.5998625276011366    0.4320623822354973    0.4368333101676459
    0.3824112039467588    0.4011869852209444    0.4529304809577735
    0.5010268321275854    0.6290963809013108    0.4867489186386896
    0.5330057021080488    0.3626894142439966    0.4204398223061827
    0.3956469436462919    0.4939844183844439    0.4142092005933010
    0.4340210000375258    0.5876888816909014    0.4195241750229660
    0.5773002062265864    0.5229142018089755    0.3917590711502533
    0.4566620977837599    0.4190426041289891    0.3972477750997269
    0.5232788413528959    0.6034915192579674    0.3950472772471396
    0.4807007991493412    0.5147632961414028    0.3727569838875376
    0.5414294343319395    0.4391400282943139    0.3576137563813884
