Au32 rank 4
1.0
   28.5676529047070034    0.0000000000000000    0.0000000000000000
    0.0000000000000000   27.7642407696813578    0.0000000000000000
    0.0000000000000000    0.0000000000000000   28.5929098327158187
  Au
  32
Direct
    0.4807119738603550    0.4765695422918550    0.6484179720082098
    0.5240688294038283    0.5583812751366036    0.6116551985279151
    0.4803294721882020    0.4036842354670759    0.5851809540047264
    0.4280728954612016    0.5553755213551546    0.6268961783462484
    0.5641191896181702    0.4684141759442269    0.6037399417852291
    0.4604119793286478    0.6179982861772373    0.5614932406780598
    0.6018527895748399    0.5438610936488653    0.5544260736749064
    0.4064723711286553    0.4675527447772441    0.5855742873604178
    0.5549102580966887    0.6296503208067676    0.5538965029070133
    0.3815324838476690    0.5570743109574162    0.5440617506959915
    0.5706372544419962    0.3763282088140786    0.5726226701192909
    0.6219687137166128    0.4491989907468653    0.5289356225627488
    0.4165862904490450    0.4007809293107121    0.5133951710446114
    0.3503770621102271    0.4716873113690428    0.5086376171799734
    0.5043862155322297    0.3582485456624868    0.5029238015335583
    0.5992027777959470    0.3646429646201076    0.4823926310784876
    0.4058395676443602    0.6293724676142970    0.4835483291177970
    0.5009758545844492    0.6408877090713292    0.4751134599446298
    0.6497789359803992    0.5240543390765454    0.4739330530579844
    0.5917060393445448    0.6014253847392579    0.4707873612165612
    0.3747735940735472    0.5435388081308428    0.4472081641608672
    0.6165291663784270    0.4440564082585293    0.4296824790516514
    0.4451431380202355    0.3660789101979082    0.4286220110655126
    0.3899352843887183    0.4456637588449886    0.4261013508773733
    0.5377041771388356    0.3831808219424702    0.4122414322687000
    0.4473009459180473    0.5968531603801444    0.4037285669794375
    0.5951709417789000    0.5360199839694675    0.3956413124255787
    0.5403492901660510    0.6166998854678848    0.3911157747523945
    0.4689635262455846    0.4385155418862958    0.3676305815429312
    0.4104620301227916    0.5164026857549703    0.3624388684159063
    0.5046832862704250    0.5328487081158189    0.3554543993392844
    0.5624448678423885    0.4548966447607339    0.3512932283610354
