Au32 rank 10
1.0
   27.6231405966475378    0.0000000000000000    0.0000000000000000
    0.0000000000000000   28.6231670033267278    0.0000000000000000
    0.0000000000000000    0.0000000000000000   28.2594977997572201
  Au
  32
Direct
    0.5467229554873285    0.4593016169324293    0.6451009384305806
    0.3818465940893498    0.4981630675288174    0.6321575170592836
    0.4524848858386700    0.4324503942230959    0.6347870515285041
    0.4779362002074460    0.5279123023592279    0.6361942301092568
    0.4029478222384384    0.5854273541780532    0.6021236351988613
    0.5678282027400594    0.5357260406940707    0.5918356311691269
    0.4344594660510602    0.3516332791373583    0.5871948739717363
    0.5278635263130818    0.3823596780825538    0.5898063845363154
    0.3725683793281668    0.4269310520429626    0.5699972210385570
    0.4961868756847060    0.6001355413651229    0.5747391968941011
    0.6030916720980269    0.4431796575124694    0.5673502218114009
    0.3634059097500550    0.5190825902150085    0.5377411147149138
    0.6384273328474376    0.5214471273287452    0.5252924966099348
    0.4857969396475761    0.3508106232710945    0.5034545772921651
    0.4123326311964767    0.5975036046963463    0.5077766566303784
    0.5740424482879729    0.5930444524643916    0.5139596889119840
    0.3847112999038120    0.3569509699668638    0.5034456862908968
    0.5829786952740350    0.3666602234963151    0.5111943464829166
    0.4941179813791249    0.6492389678538804    0.4924937607873083
    0.3598027754911610    0.4452925169031902    0.4756832640424205
    0.6161405432600726    0.4456480269501216    0.4688586196254946
    0.5351310342918943    0.3931318666353928    0.4305785511501705
    0.4358709714121398    0.3876824001197685    0.4275503180799869
    0.6038139176192191    0.5365460911698283    0.4361223604638704
    0.4542017930131060    0.5970873364011783    0.4198394106233575
    0.3807076439865844    0.5334381352676990    0.4423801488479205
    0.5531406476883253    0.6170402898947415    0.4216289602922743
    0.5803450780460978    0.4612418267017685    0.3801142731677901
    0.4284235490589637    0.5314866822080546    0.3557590141323386
    0.4822274692462619    0.4501512102872929    0.3694570256264942
    0.5246473460952453    0.5397247450925716    0.3729036672345111
    0.3811992857372667    0.4532496582328183    0.3827544201557892
