Au32 rank 12
1.0
   28.1556027677686629    0.0000000000000000    0.0000000000000000
    0.0000000000000000   28.7454936736792845    0.0000000000000000
    0.0000000000000000    0.0000000000000000   28.2165572169496457
  Au
  32
Direct
    0.4995709941130578    0.4994190320878651    0.6468521090342808
    0.5943261671628493    0.5094680124224401    0.6266006817085217
    0.4570313012394747    0.4159631598048885    0.6347085039330437
    0.4386469353344096    0.5720459861544364    0.6355686405328327
    0.5345840072001066    0.5845723691604121    0.6167948136147192
    0.5524115203364142    0.4276965686511604    0.6027386312933611
    0.4087249072748407    0.4891250585340097    0.5973227350271968
    0.4979521757409726    0.3547515518940562    0.5739274308557090
    0.6121101206664912    0.5692647976454022    0.5541191580631307
    0.4643316349649902    0.6342706861554922    0.5677264737830486
    0.6115534207505815    0.4715627778118318    0.5385338112055723
    0.5596276688122276    0.6491259430052352    0.5503875181555647
    0.3855854504498762    0.5717017335452360    0.5547265091124214
    0.4204510005809517    0.4101699420643952    0.5428842289220346
    0.5585967555800531    0.3961734971648231    0.5090163696964412
    0.3785159338249442    0.4872526451538476    0.5041306172010503
    0.6457699095133514    0.5322942780071033    0.4721332138258430
    0.4030472581413779    0.6461741854136549    0.4941420068883615
    0.4710839906128016    0.3500039770081078    0.4828163833501265
    0.5895380728873002    0.6106339803372848    0.4665527351006131
    0.4978641794164809    0.6496902361334398    0.4756959011953806
    0.5972251393566624    0.4550399092259895    0.4423979212113130
    0.3548565960454911    0.5696505044790077    0.4624577461102907
    0.4199236509984758    0.4217903886755577    0.4462326151711741
    0.4032289288942207    0.5086375788291622    0.4084301750054919
    0.5194629122919852    0.4007567522604951    0.4194028272659038
    0.5287599760746418    0.6181411211492678    0.3902436497823738
    0.4566931177049717    0.4458063801943982    0.3600575344967312
    0.5529992278028952    0.4639643463801580    0.3553860453572423
    0.5865000290060843    0.5422095770377263    0.3965768135561220
    0.4354421054765796    0.6001543324615666    0.4139086859890447
    0.4883979881040088    0.5361091187192824    0.3645582555528979
