Au32 rank 13
1.0
   27.6670820176613184    0.0000000000000000    0.0000000000000000
    0.0000000000000000   29.1494214400539562    0.0000000000000000
    0.0000000000000000    0.0000000000000000   27.3979297732805378
  Au
  32
Direct
    0.4470905862134544    0.5665053593939927    0.6348761111830875
    0.5343986466920819    0.5219340366353462    0.6318009539994393
    0.4494687546345709    0.4752522580363536    0.6119300488550459
    0.5376461120487741    0.4327825613595748    0.5972794187121442
    0.6274347542011200    0.4108358188049426    0.5521912186519615
    0.6210156624049249    0.4872608120796684    0.6075178889242211
    0.5296424846049833    0.6142921121610362    0.6097617016848863
    0.3903937842485158    0.5407961991968232    0.5585194742426463
    0.3703322788476514    0.4494561225284366    0.5588810333543276
    0.4492513748220747    0.6178062499408594    0.5499195965735093
    0.4547018522836916    0.3988889288377079    0.5537804884646934
    0.5999419669806650    0.5668999843983893    0.5609420445769755
    0.5444388259605378    0.3743373950411829    0.5180870192728551
    0.6126769226631026    0.4182788778424549    0.4543774971663462
    0.6414664181828129    0.4958563756355192    0.5076572188754512
    0.5444479873835357    0.6304249122169592    0.5127879109736337
    0.3585324968260076    0.4992254893776560    0.4737465265512156
    0.3960604541920652    0.5876725854727014    0.4716855309582849
    0.4635296185751689    0.6552461322903985    0.4597758430856414
    0.3915310866812173    0.4082056734134011    0.4728861203598916
    0.4626963969364965    0.3443053202562836    0.4717638173496760
    0.6066576139272367    0.5731862155441608    0.4611199209970389
    0.5478644198191448    0.6319005016220740    0.4119102288958547
    0.3780539158307131    0.5447725517280994    0.3857135026247221
    0.6308307171490849    0.4982254281258585    0.4072942713105071
    0.5443290451952612    0.3617334433324353    0.4168491936854464
    0.3757459094662065    0.4521789153193868    0.3867891193257569
    0.4627337532940128    0.5897028203672768    0.3869360681040959
    0.5489024618369668    0.4500491161789746    0.3807615140892132
    0.4607442028089332    0.4074022460015258    0.3947463858905566
    0.4639104811411541    0.4974242013388365    0.3631506288310078
    0.5499173345030065    0.5440007016106572    0.3772160282357049
