Au32 rank 20
1.0
   27.6817459269187296    0.0000000000000000    0.0000000000000000
    0.0000000000000000   27.9195665072530588    0.0000000000000000
    0.0000000000000000    0.0000000000000000   29.1328889520156338
  Au
  32
Direct
    0.4952576173522258    0.5466960338691671    0.6536668914656790
    0.5794987494552802    0.5073985088896334    0.6266737561696233
    0.4840932190657031    0.4551718124085375    0.6229659830006796
    0.5719830261071183    0.4112507818532293    0.6234901510873467
    0.4553288803327533    0.6168450598238219    0.6020255286283496
    0.4170434960427970    0.5238075125926959    0.5977701019302958
    0.5530684989074072    0.5970628705495389    0.5906140488182022
    0.6389849403142855    0.5546876517533792    0.5677116992950476
    0.4997249633371146    0.3779086826433870    0.5653250990014173
    0.4172469371111521    0.4339493931710396    0.5565105905505662
    0.6321644013310629    0.4572139758697149    0.5595420584493435
    0.5982453384481212    0.3644996216933917    0.5460235558274055
    0.3592222743962282    0.5045896514124970    0.5237304469685781
    0.3997692487994057    0.5931412585491357    0.5295852923277771
    0.4990234094129755    0.6372164174738708    0.5205515990239653
    0.5904712563044882    0.6046520913430493    0.5022861940845770
    0.4378155640747602    0.3656794472587106    0.4929454798969341
    0.6411484616542515    0.5152787560915515    0.4824295561720309
    0.5341656708733357    0.3558694989569930    0.4769421837866660
    0.6223332275771395    0.4194366572875536    0.4721979074017194
    0.4007763682296822    0.4483645264365086    0.4585841311248418
    0.3913604575622989    0.5464448085557498    0.4443928550639774
    0.4304147236501249    0.6389056677155793    0.4535655398614146
    0.5262576983031692    0.6208675434508041    0.4304660014073106
    0.6134976751045648    0.5772928678264758    0.4155245853575655
    0.4739524133303362    0.4003959317267318    0.4119334552516312
    0.5733259761729176    0.3865275878635220    0.3975299297781330
    0.4489163524399552    0.5875830155278593    0.3767829928205159
    0.5360426270854275    0.5459510919143754    0.3665163054921611
    0.6055914971506812    0.4809287391094043    0.3993873000253688
    0.5255761319995724    0.4523099767013384    0.3466445917213472
    0.4440773564206373    0.4904224527991931    0.3841362244150998
