Au32 rank 14
1.0
   29.2720802753497331    0.0000000000000000    0.0000000000000000
    0.0000000000000000   27.4002316853827885    0.0000000000000000
    0.0000000000000000    0.0000000000000000   28.4249073143375277
  Au
  32
Direct
    0.4367051818359389    0.4852529599680426    0.6465126356250342
    0.5075290959512895    0.5467201172841554    0.6267597489636443
    0.5162008206848866    0.4434719708249921    0.6163569930916233
    0.4173622059510114    0.5737672959938310    0.6052343136145338
    0.4310540103429875    0.4090546873135871    0.5838795915608199
    0.5893437681582044    0.5042669033546116    0.6075252232342517
    0.3712673109123468    0.4882281937738129    0.5784060501195969
    0.4879295492413919    0.6350557814017120    0.5857897791182568
    0.5110008996288474    0.3648766078984267    0.5573475490379606
    0.5674342144700409    0.5902646971368851    0.5609152304374958
    0.3424076266872004    0.5778236929836458    0.5486543106086805
    0.5788447311868753    0.4310371918673380    0.5413632649782080
    0.3599086896422917    0.4097327441140869    0.5198967875283238
    0.4198659511489963    0.6305281874500412    0.5206147124111217
    0.4411342568826359    0.3688323474776866    0.4940312824105580
    0.6245328503383804    0.5183558326135455    0.5217355307417940
    0.3463887754630008    0.5013386373002986    0.4825925801206445
    0.5103810287899572    0.6372649606914543    0.4928701473585810
    0.5317304416463225    0.3889179961745516    0.4659348528149390
    0.5915534950501631    0.5961172544622334    0.4679386489954812
    0.3564305399892995    0.5974334398448600    0.4560716572120812
    0.5973604057257091    0.4559375506661009    0.4484828839050384
    0.3888971402485097    0.4299881666771189    0.4308514561191665
    0.4427763318253467    0.6122405994481027    0.4266183158185647
    0.4632645035131978    0.3748369052903087    0.4015771932677848
    0.5262548725417681    0.4485120484836715    0.3854102366858556
    0.4382155393300636    0.4565815236697238    0.3524453605072685
    0.6562155406778041    0.5329729836555473    0.4328747661367053
    0.3937349173177055    0.5277191504071083    0.4005450134343647
    0.4830270514992675    0.5415462836817947    0.3684193987845426
    0.5740922396979963    0.5337534294997158    0.3877894434270868
    0.5304724470059483    0.6220238544606955    0.3993263078057500
