Au
 1.0000000000000000
    27.6371672050000008    0.0000000000000000    0.0000000000000000
     0.0000000000000000   29.5708182780000008    0.0000000000000000
     0.0000000000000000    0.0000000000000000   27.9182233760000003
 Au 
  33
Cartesian
 14.2803500000000003 14.9077400000000004 17.9243300000000012
 12.6711399999999994 16.9788099999999993 17.1243200000000009
 11.7906099999999991 14.3273200000000003 16.9176800000000007
 10.1749100000000006 16.3718100000000000 16.1402600000000014
 15.4640299999999993 17.0367299999999986 16.7043399999999984
 14.0420800000000003 12.7146399999999993 16.3238699999999994
 16.2424299999999988 14.4121199999999998 16.0678400000000003
 13.9188399999999994 19.2275500000000008 16.1490200000000002
 16.0954400000000000 12.1766299999999994 14.5442999999999998
 10.2667000000000002 14.2220499999999994 14.4398800000000005
 11.4840300000000006 12.0367700000000006 15.5183999999999997
 11.4661700000000000 18.5433500000000002 15.1273599999999995
 17.6525900000000000 16.5821800000000010 15.1466899999999995
 13.5731300000000008 10.9925599999999992 14.1805800000000009
 15.9621800000000000 18.6144099999999995 14.4145800000000008
 11.5057899999999993 12.3327600000000004 12.7931399999999993
  9.9513099999999994 16.7869300000000017 13.4527199999999993
 17.4217100000000009 14.3930100000000003 13.5398800000000001
 13.4926499999999994 19.5502800000000008 13.4585200000000000
 10.9553499999999993 19.2249799999999986 12.5493400000000008
 15.7517200000000006 10.0266300000000008 12.8303700000000003
 17.1823300000000003 17.0062299999999986 12.4740900000000003
 13.0252199999999991 18.3150799999999983 10.9208599999999993
 15.5310400000000008 19.0338899999999995 11.7288499999999996
 16.4919699999999985 12.4444400000000002 11.7750599999999999
 10.4920100000000005 14.6852900000000002 11.7359500000000008
 13.8769899999999993 11.5668500000000005 11.4837600000000002
 12.0699000000000005 13.0943100000000001 10.2070200000000000
 17.1815099999999994 14.8666000000000000 10.8246300000000009
 14.6958800000000007 13.9185800000000004 10.1671800000000001
 12.6185799999999997 15.7431500000000000  9.9799199999999999
 15.1799300000000006 16.6634799999999998 10.3926999999999996
 10.4763099999999998 17.2241000000000000 10.7613099999999999
