Au
 1.0000000000000000
    28.6965482750000014    0.0000000000000000    0.0000000000000000
     0.0000000000000000   29.7717840500000008    0.0000000000000000
     0.0000000000000000    0.0000000000000000   30.4164055449999999
 Au 
  41
Cartesian
 14.9096600000000006 18.0342300000000009 20.4343100000000000
 16.1631299999999989 15.6797000000000004 19.7436800000000012
 13.5160999999999998 16.2311000000000014 18.9340699999999984
 17.2896299999999989 13.4259799999999991 18.6938199999999988
 13.3042499999999997 19.0758699999999983 18.4251000000000005
 14.5537100000000006 13.6889599999999998 18.4543099999999995
 15.7720099999999999 17.8187199999999990 17.8217800000000004
 12.0661600000000000 14.4242699999999999 17.4481900000000003
 17.5211599999999983 15.7637000000000000 17.2690500000000000
 11.6753800000000005 17.1481400000000015 17.0939200000000007
 15.9124499999999998 11.6820799999999991 17.0347800000000014
 13.1654300000000006 11.9819999999999993 16.7931999999999988
 11.6915200000000006 19.8116500000000002 16.3602200000000018
 14.2110199999999995 15.8985500000000002 16.1420600000000007
 10.6852099999999997 12.6722300000000008 15.8535699999999995
 17.8931399999999989 13.2797800000000006 15.9802000000000000
 14.2187599999999996 18.8112099999999991 15.7235700000000005
 10.3925699999999992 15.3340200000000006 15.4143899999999991
 16.5825099999999992 17.4134799999999998 15.2221200000000003
 14.4663799999999991  9.9703199999999992 15.4225200000000005
 10.0027699999999999 18.0388899999999985 15.0456900000000005
 18.7195999999999998 15.6867199999999993 14.8198899999999991
 15.1933900000000008 13.6533400000000000 14.9498300000000004
 12.3480500000000006 11.2942400000000003 14.1632400000000001
 16.6539499999999983 11.3421199999999995 14.3107199999999999
 12.2834199999999996 18.8434400000000011 13.7535299999999996
 13.5533999999999999 15.2885899999999992 13.5833499999999994
 11.1456199999999992 13.6530900000000006 13.2891700000000004
 14.8511399999999991 17.9285400000000017 13.1549600000000009
 17.7613400000000006 13.6547800000000006 13.2403700000000004
 10.9393899999999995 16.4290699999999994 12.9639900000000008
 17.0677200000000013 16.3379699999999985 12.7310800000000004
 14.5268800000000002 10.3545900000000000 12.7397700000000000
 12.7495300000000000 17.6614800000000010 11.3392900000000001
 12.6419400000000000 12.1523699999999995 11.5576000000000008
 16.4540100000000002 11.9360400000000002 11.5991999999999997
 12.3757199999999994 14.8758700000000008 11.0775100000000002
 17.1522399999999990 14.4499800000000000 10.6730499999999999
 14.5723000000000003 13.5389900000000001 10.0835200000000000
 14.5129300000000008 10.7964099999999998 10.0372000000000003
 14.9508600000000005 16.0862100000000012 11.0050699999999999
