Au
 1.0000000000000000
    29.0465394189999984    0.0000000000000000    0.0000000000000000
     0.0000000000000000   28.3081840639999989    0.0000000000000000
     0.0000000000000000    0.0000000000000000   30.1309996320000018
 Au 
  41
Cartesian
 14.8443699999999996  9.9557000000000002 20.1714400000000005
 14.7251399999999997 12.5268999999999995 19.2302500000000016
 17.1042099999999984 11.0294899999999991 18.8964900000000000
 12.3278599999999994 13.4912200000000002 18.2225199999999994
 12.4840699999999991 10.7119400000000002 19.0024000000000015
 14.5411599999999996 15.1631499999999999 18.3165499999999994
 17.0216799999999999 13.8225700000000007 18.4035499999999992
 16.9124100000000013 16.4721200000000003 17.7015500000000010
 10.2871100000000002 11.7101799999999994 17.7626199999999983
 19.0233600000000003 12.2552299999999992 17.3253300000000010
 14.8078400000000006 10.1974099999999996 17.4262499999999996
  9.9930199999999996 14.3706899999999997 16.9758500000000012
 12.2594300000000000 15.9695800000000006 16.9052000000000007
 14.5382899999999999 13.0039400000000001 16.4084000000000003
 14.4777199999999997 17.5637800000000013 16.8800099999999986
 18.5746499999999983 14.7517200000000006 16.2372100000000010
 17.1614399999999989 10.7232900000000004 16.0805800000000012
 12.4395900000000008 10.9039699999999993 16.1402700000000010
 17.9550899999999984 17.2503799999999998 15.2545000000000002
 10.5173000000000005 12.5165299999999995 15.0398099999999992
 18.7845100000000009 12.5835500000000007 14.5651499999999992
 14.7737599999999993 10.4453099999999992 14.6736599999999999
 16.0346100000000007 13.1191300000000002 14.0971299999999999
 10.9208400000000001 15.3406199999999995 14.5585699999999996
 13.0802399999999999 17.1113800000000005 14.4395799999999994
 15.5293500000000009 18.3704600000000013 14.4609900000000007
 13.4839699999999993 14.1712799999999994 14.1073400000000007
 15.6329200000000004 15.4839099999999998 15.3248200000000008
 18.3275800000000011 15.1022400000000001 13.4543099999999995
 17.2804800000000007 10.5568600000000004 13.3502899999999993
 12.5706000000000007 11.4971399999999999 13.4089100000000006
 17.3999600000000001 17.5802100000000010 12.5713399999999993
 10.8320500000000006 13.5016400000000001 12.5261600000000008
 17.7089600000000011 12.8983600000000003 11.8823200000000000
 15.0048700000000004 11.3545499999999997 12.0339399999999994
 12.3523200000000006 15.7898200000000006 12.0888299999999997
 14.7017100000000003 17.2446300000000008 12.0866399999999992
 16.8135200000000005 15.4226899999999993 11.1123200000000004
 13.1417500000000000 13.1561699999999995 11.1422000000000008
 15.7009600000000002 13.1236700000000006 10.0208899999999996
 14.2365999999999993 15.4678500000000003 10.1092399999999998
