Au
 1.0000000000000000
    27.4979593270000002    0.0000000000000000    0.0000000000000000
     0.0000000000000000   29.6032415769999986    0.0000000000000000
     0.0000000000000000    0.0000000000000000   31.0493011430000010
 Au 
  41
Cartesian
 13.2157699999999991 14.7016299999999998 21.0060299999999991
 11.8001199999999997 12.7874999999999996 19.6233800000000009
 14.6360700000000001 16.3908200000000015 19.4285700000000006
 14.4182500000000005 13.5573800000000002 18.7904000000000018
 12.0672700000000006 15.4165399999999995 18.5924499999999995
 12.9160299999999992 11.6753699999999991 17.3783700000000003
 15.9799299999999995 18.0407699999999984 17.7987399999999987
 16.0403300000000009 15.1834199999999999 17.3292600000000014
 10.6569400000000005 13.4099500000000003 17.1828399999999988
 13.3295899999999996 17.3273299999999999 17.1014799999999987
 15.4518500000000003 12.5900300000000005 16.4621299999999984
 11.0901099999999992 16.0237699999999990 16.1357900000000001
 13.8762799999999995 10.8508200000000006 14.9435900000000004
 17.4152099999999983 19.6595799999999983 16.0941299999999998
 17.2637299999999989 16.9171399999999998 15.5447199999999999
 11.1418199999999992 11.4814799999999995 15.2129999999999992
 17.0339300000000016 14.2345799999999993 14.8997100000000007
 14.9103800000000000 18.7571100000000008 15.2931899999999992
 14.5339799999999997 15.9207800000000006 14.8457699999999999
  9.9772200000000009 13.9678500000000003 14.5582399999999996
 12.4296100000000003 17.8467400000000005 14.4524500000000007
 12.8929799999999997 13.8129000000000008 15.3788300000000007
 16.3375599999999999 11.7033199999999997 14.0497999999999994
 10.1823499999999996 16.5237400000000001 13.6110199999999999
 17.1263399999999990 18.8410299999999999 13.5033999999999992
 11.9995200000000004 10.0165500000000005 13.0328700000000008
 17.5057599999999987 13.4717400000000005 12.2296700000000005
 14.2888800000000007 13.8962699999999995 13.0683399999999992
 17.5086100000000009 16.1021099999999997 12.9133999999999993
 10.0875100000000000 11.9398199999999992 12.6749500000000008
 10.9080300000000001 14.4354399999999998 11.9281100000000002
 14.5900400000000001 10.3580600000000000 12.2903800000000007
 12.1595999999999993 16.8980999999999995 11.7843800000000005
 16.6645900000000005 17.9053800000000010 11.0140399999999996
 14.4317899999999995 18.2987700000000011 12.6134500000000003
 12.5515500000000007 12.1996699999999993 11.4261599999999994
 17.1792400000000001 10.8440499999999993 11.5265599999999999
 13.2909699999999997 14.6624599999999994 10.4832900000000002
 16.0607100000000003 15.2426999999999992 10.6376700000000000
 15.2030899999999995 12.6233900000000006 10.7293000000000003
 14.2045800000000000 17.1951600000000013 10.0279500000000006
