Au
 1.0000000000000000
    28.9692683449999997    0.0000000000000000    0.0000000000000000
     0.0000000000000000   27.6069096159999994    0.0000000000000000
     0.0000000000000000    0.0000000000000000   28.1199656100000013
 Au 
  30
Cartesian
 15.2104599999999994 14.8924400000000006 18.1868899999999982
 15.1655099999999994 12.1682799999999993 18.0036899999999989
 12.8900500000000005 16.2943500000000014 18.0333399999999990
 12.7861300000000000 13.5243400000000005 17.8060299999999998
 17.4667800000000000 16.1685599999999994 17.2989899999999999
 17.2125400000000006 13.4746699999999997 16.7109600000000000
 15.0161800000000003 17.0647500000000001 16.4180600000000005
 10.8873800000000003 15.1869599999999991 16.5677300000000010
 13.2908399999999993 11.2449999999999992 16.2432699999999990
 18.9876800000000010 15.0598500000000008 15.2781800000000008
 10.9049300000000002 12.5246800000000000 16.0181499999999986
 16.0736300000000014 11.3174700000000001 15.5537799999999997
 12.5100899999999999 17.2123400000000011 15.4443199999999994
 17.1591699999999996 16.9992799999999988 14.6471000000000000
 17.9382500000000000 12.8029799999999998 14.1009899999999995
 10.0205500000000001 16.7837899999999998 14.4390199999999993
 14.2185900000000007  9.9846900000000005 13.9939099999999996
 10.9770699999999994 14.2973300000000005 13.8863900000000005
 14.6096000000000004 17.4849999999999994 13.7008399999999995
 12.3493899999999996 11.9868299999999994 13.7048000000000005
 18.1830600000000011 15.1735299999999995 12.6848899999999993
 16.6779499999999992 10.6555999999999997 12.9252000000000002
 12.1439199999999996 16.5962099999999992 12.6948799999999995
 14.4161900000000003 11.7707800000000002 11.8550799999999992
 17.0139600000000009 12.9396799999999992 11.4910700000000006
 12.7797699999999992 13.9988700000000001 11.8407000000000000
 14.7629599999999996 13.6994600000000002  9.9891500000000004
 16.7564999999999991 17.5007300000000008 12.0171299999999999
 16.8403600000000004 15.4078800000000005 10.3007500000000007
 14.3606099999999994 16.2277400000000007 11.2028900000000000
