Au
 1.0000000000000000
    29.0125347849999997    0.0000000000000000    0.0000000000000000
     0.0000000000000000   28.6213568689999995    0.0000000000000000
     0.0000000000000000    0.0000000000000000   28.0923092839999988
 Au 
  30
Cartesian
 15.6803699999999999 11.5286700000000000 18.1011999999999986
 17.2409700000000008 13.7450600000000005 17.9601399999999991
 14.4393200000000004 13.9632000000000005 17.6666300000000014
 16.1815299999999986 16.0450100000000013 16.9213799999999992
 13.2200699999999998 11.5558999999999994 16.8957400000000000
 13.4552099999999992 16.2697900000000004 16.5785100000000014
 11.9265200000000000 13.9838400000000007 16.5663899999999984
 15.1418099999999995 18.3261299999999991 15.9064999999999994
 15.2869899999999994 10.0200600000000009 15.8439800000000002
 10.9602100000000000 11.5923400000000001 15.4118300000000001
 17.0660099999999986 12.1498600000000003 15.6945200000000007
 18.1856000000000009 14.7170799999999993 15.5859900000000007
 13.1758799999999994 10.5410799999999991 14.1985600000000005
 10.9552399999999999 16.3974399999999996 15.3944600000000005
 10.0406499999999994 14.0073899999999991 14.5223399999999998
 18.9842300000000002 15.6323399999999992 13.1802799999999998
 12.9862699999999993 17.7299800000000012 14.1791499999999999
 15.8308300000000006 11.2080099999999998 13.4410200000000000
 17.3329099999999983 17.2142200000000010 14.6446199999999997
 11.7682400000000005 12.5953800000000005 12.9212600000000002
 17.8255599999999994 13.0869199999999992 13.2555800000000001
 11.9428000000000001 15.3827599999999993 13.0066299999999995
 15.3892000000000007 18.6439999999999984 13.2124699999999997
 13.7867200000000008 11.2212300000000003 11.6210400000000007
 18.0659400000000012 14.5200800000000001 10.9108599999999996
 14.1021300000000007 16.6471699999999991 11.8544499999999999
 16.0175699999999992 12.6716999999999995 11.0667600000000004
 13.5356799999999993 13.9652899999999995 11.3200199999999995
 16.9198799999999991 16.9130399999999987 11.8324800000000003
 15.5889000000000006 15.2383100000000002 10.0557499999999997
