Au
 1.0000000000000000
    28.2678164950000017    0.0000000000000000    0.0000000000000000
     0.0000000000000000   27.4748704609999983    0.0000000000000000
     0.0000000000000000    0.0000000000000000   28.3929870609999995
 Au 
  30
Cartesian
 15.8064499999999999 13.4883000000000006 18.3732199999999999
 13.4430599999999991 12.3263300000000005 17.6712500000000006
 13.6700300000000006 15.0806199999999997 17.5553999999999988
 11.1711600000000004 13.8692799999999998 17.4622700000000002
 16.2946400000000011 15.9816000000000003 17.3345799999999990
 15.8788699999999992 11.3985800000000008 16.6265500000000017
 17.5108099999999993 13.7623700000000007 16.2223199999999999
 11.7611699999999999 16.0485000000000007 15.8199100000000001
 13.5679700000000008 10.0126700000000000 16.1411300000000004
 11.4152699999999996 11.7026599999999998 15.7983200000000004
 14.3922600000000003 16.8486100000000008 15.5796399999999995
 10.0212699999999995 13.9687800000000006 14.9780899999999999
 16.9893600000000013 16.0887500000000010 14.6933100000000003
 17.7741000000000007 11.4983699999999995 14.6719000000000008
 10.0133500000000009 16.3885599999999982 13.7585400000000000
 15.3639100000000006 10.3850300000000004 14.0573300000000003
 12.6446600000000000 17.2704899999999988 13.4975500000000004
 12.5751600000000003 10.5356199999999998 13.6198399999999999
 18.2910700000000013 13.9607600000000005 13.5759600000000002
 10.1054999999999993 11.7166300000000003 13.3814700000000002
 15.3541399999999992 17.5257000000000005 13.0558099999999992
 10.2074300000000004 14.1212999999999997 12.1447400000000005
 16.4312900000000006 12.2889800000000005 12.3593399999999995
 16.2012199999999993 15.0223099999999992 12.1757799999999996
 11.1115399999999998 16.6419800000000002 11.2759099999999997
 14.3316900000000000 10.6778999999999993 11.5194600000000005
 11.9497400000000003 12.0214200000000009 11.3477700000000006
 13.8250399999999996 16.0773100000000007 11.2774599999999996
 14.3879500000000000 13.3957599999999992 10.8783499999999993
 11.9993999999999996 14.3873200000000008 10.0237499999999997
