Au
 1.0000000000000000
    28.1869471050000016    0.0000000000000000    0.0000000000000000
     0.0000000000000000   27.8257405159999998    0.0000000000000000
     0.0000000000000000    0.0000000000000000   28.4399236819999999
 Au 
  34
Cartesian
 14.5202299999999997 14.1832700000000003 18.4817500000000017
 13.1125000000000007 11.9278800000000000 17.7832599999999985
 15.8555299999999999 12.1009499999999992 17.2856099999999984
 12.0665200000000006 14.7096400000000003 17.4204100000000004
 16.6261100000000006 14.8375299999999992 16.8771599999999999
 14.2313200000000002 16.4044799999999995 16.8392400000000002
 14.3469599999999993 10.2688199999999998 15.8016500000000004
 10.4882799999999996 12.5539500000000004 16.8787200000000013
 18.1691900000000004 12.8070599999999999 15.9230099999999997
 11.7305700000000002 16.9095200000000006 15.8020099999999992
 16.3882200000000005 17.0499100000000006 15.2307699999999997
 11.6398200000000003 10.2204099999999993 16.0656099999999995
 17.0180299999999995 10.3993099999999998 15.3984500000000004
 12.8898700000000002 12.9110899999999997 15.1571300000000004
 10.3621200000000009 14.6440099999999997 15.1109600000000004
 17.7599499999999999 14.8783399999999997 14.2034400000000005
 14.8406400000000005 14.6674699999999998 14.5391899999999996
 13.8600499999999993 17.4215799999999987 14.1674100000000003
 10.3864300000000007 11.8855599999999999 14.1354799999999994
 12.6314399999999996 10.2396300000000000 13.5406499999999994
 15.4503699999999995 10.3083700000000000 13.1973400000000005
 17.5458399999999983 12.1619200000000003 13.2951099999999993
  9.9908800000000006 14.0569699999999997 12.4797200000000004
 11.4536700000000007 16.3215000000000003 13.1318599999999996
 13.9434199999999997 12.9424100000000006 12.6710200000000004
 13.5567899999999995 16.9763500000000001 11.4883000000000006
 11.4781200000000005 11.9247999999999994 11.5566499999999994
 16.0489899999999999 16.4717100000000016 12.5479900000000004
 17.4564599999999999 14.2905599999999993 11.5588899999999999
 13.7549499999999991 10.2998700000000003 11.0717199999999991
 12.1338600000000003 14.7068800000000000 10.9324899999999996
 15.9961300000000008 12.0341500000000003 10.9758200000000006
 14.9773300000000003 14.8123100000000001 10.5529700000000002
 13.5123200000000008 12.6641700000000004  9.7363700000000009
