Au34 rank 16
1.0
   26.2129497278627355    0.0000000000000000    0.0000000000000000
    0.0000000000000000   28.1370872161085437    0.0000000000000000
    0.0000000000000000    0.0000000000000000   27.9761194964753379
  Au
  34
Direct
    0.4813058535051765    0.4860944617177381    0.6341088232786138
    0.5090016107261875    0.5806579970811477    0.6142590654034475
    0.5835361447765659    0.5077260347103953    0.6111644981641053
    0.4077888176556879    0.5540490965242515    0.6328965228741946
    0.5474621142508614    0.4147093394987826    0.6165738018994278
    0.5290359743323664    0.5313948464579815    0.5246133279950034
    0.6014484398511407    0.5955899472263566    0.5687510930976575
    0.3867276902514780    0.4712638819327020    0.5877824164837456
    0.4266885114302483    0.6305477601795428    0.5759053068538729
    0.6354279597533103    0.4340318564540018    0.5664335699555545
    0.4752623446993177    0.3566558450856542    0.5787253357422139
    0.3878887854981848    0.3891121290307467    0.5374784163027829
    0.3657244858740413    0.5574812219390799    0.5412180239466096
    0.5645104058185769    0.3741539739333878    0.5259073639554410
    0.6420233403330552    0.5188780710961134    0.5208105007010108
    0.6259590794529165    0.4334923826575550    0.4686141058095021
    0.5160975250421563    0.6354276962579640    0.5265906775162252
    0.3536246564964188    0.4717263844577212    0.4931926699055162
    0.4798397207930990    0.4476825179596571    0.5372730188094160
    0.5598298410339700    0.3688024772315821    0.4283334486059911
    0.5951484400778558    0.5946627035106146    0.4689723929078132
    0.3813097634635457    0.3930532241303137    0.4395758376827553
    0.4212343484702602    0.6200425177444702    0.4793784473245163
    0.4703842227991704    0.3583072867654317    0.4789007618766636
    0.6379155786728616    0.5185213208399944    0.4226193477094841
    0.4830016370969048    0.4913933907362982    0.4504051396854367
    0.3522741414215717    0.5560685662905125    0.4446078877355415
    0.5675156134101486    0.4564027931422978    0.3865733741995676
    0.3909388144918846    0.4792930474284997    0.3963465099836175
    0.4713886812378945    0.4070348468081673    0.3909192555855091
    0.5490144929454289    0.5556936383680763    0.3859988337832653
    0.5096167030676835    0.6351001547492661    0.4289758596576365
    0.4411809680456453    0.5702764928167164    0.3936632777513140
    0.4804593284289043    0.4931557503951835    0.3450845424629930
