Au34 rank 10
1.0
   27.2383783916597686    0.0000000000000000    0.0000000000000000
    0.0000000000000000   27.4140898056119049    0.0000000000000000
    0.0000000000000000    0.0000000000000000   27.4671143078108457
  Au
  34
Direct
    0.5473426627142813    0.5358763209738450    0.6558472013166853
    0.4464100598030607    0.5269555322685260    0.6425055735596562
    0.5988263409791351    0.5675268891784352    0.5729797576929720
    0.5046746842994219    0.6074180310872844    0.5991216312396295
    0.4695269059598166    0.3573445625030170    0.6068140660984536
    0.5056706439440177    0.4435862855147254    0.6459770740052907
    0.6026276556920727    0.4679870867066108    0.6056785783346854
    0.4047737928608736    0.6061700689593454    0.5942395951766060
    0.4105016148260723    0.4371720422985907    0.6033111287371982
    0.3550317544081435    0.5197490412001281    0.5986579055109947
    0.5683149174493630    0.3744414826354640    0.6054490177706839
    0.4133727991959114    0.3642352624954029    0.5254646725584649
    0.5112534398373232    0.5074473793816284    0.5621018275953177
    0.5538026294237197    0.6377635254956785    0.5174343016543855
    0.3542421400543193    0.4611352827493899    0.5194523088888658
    0.5195622427776199    0.3546708224176089    0.5191056814972232
    0.3723080160655283    0.5632043650416475    0.5089415592222313
    0.4568262679317268    0.4509450231684338    0.5032938664658089
    0.6525235118869834    0.4981687682751628    0.5244650797651728
    0.6148009363219116    0.4671681734859046    0.4376155015408023
    0.4541106527633926    0.6295037837295001    0.5110198652932796
    0.6087489297726983    0.5692254488435128    0.4686543971806770
    0.6114997849942299    0.4072083134378464    0.5221693623460408
    0.5215632020840989    0.5118674339447939    0.4655920499943358
    0.4724950972401610    0.3733429411740489    0.4324839871729244
    0.3756363785735904    0.4028803033901738    0.4420243849533002
    0.3840216969446320    0.5032008773493544    0.4295820525405520
    0.4149938449207080    0.5979889237415320    0.4255228583450565
    0.5730584001814693    0.3750033910611337    0.4367565690205583
    0.5713420342995766    0.5387980582312081    0.3793991142120574
    0.5161096495119788    0.6091250165181320    0.4294007066166876
    0.5307341252266126    0.4454900250210724    0.3799059935239340
    0.4696299147163213    0.5315062257866895    0.3744712876335716
    0.4314354141132473    0.4393008346560578    0.3670562392608357
