Au34 rank 19
1.0
   26.7674321824506372    0.0000000000000000    0.0000000000000000
    0.0000000000000000   27.6858745551330330    0.0000000000000000
    0.0000000000000000    0.0000000000000000   27.3020684241884481
  Au
  34
Direct
    0.4669122210223884    0.4642595383344880    0.6594803410530775
    0.5336047360718895    0.5307941600706988    0.6246896147348434
    0.4293942546166657    0.5374366548254740    0.6044725593225497
    0.5529498777877455    0.4314051736513083    0.6150179494045537
    0.4937442796395550    0.6075706778670847    0.5687151377561118
    0.4630096047414364    0.3786032806054748    0.6088724718841505
    0.6225879355673595    0.4952020639463232    0.5756710911506369
    0.3857010889303256    0.4462496552602990    0.5965695723421174
    0.5954485865755791    0.5906189645165315    0.5714055705478021
    0.4692245501225701    0.4460825137786631    0.5304363627259854
    0.3662523510542263    0.5123635114433851    0.5225547882393610
    0.3917611997373363    0.6054061372502709    0.5441446236860671
    0.6673882471814114    0.4572086123595437    0.4898827775409659
    0.5340099075750716    0.5197817618835324    0.5187170226809833
    0.5387194173270514    0.3585967172590657    0.5425984950979532
    0.5562126357768780    0.6187408001648280    0.4822389533721813
    0.4377542915641531    0.3457949628812478    0.5173475024531764
    0.6300016877351213    0.3966062992563543    0.5592923588732414
    0.3652244714349337    0.4151314910657476    0.5027123881096258
    0.4586585207157908    0.6482081718451381    0.4822609978340639
    0.5131392774460136    0.3363517599568712    0.4476750861562268
    0.6327367091698275    0.5490198688585290    0.4856383728863835
    0.6074482948512685    0.4769945455958505    0.4112355631756363
    0.4298909517403138    0.3904892756350484    0.4269941078671131
    0.4777376092986995    0.4914316511899283    0.4429199388784903
    0.5982525646578334    0.3891046337884553    0.4615437231470348
    0.3974332951206904    0.5740676383112946    0.4484577037645686
    0.3740996510101278    0.4778734002586979    0.4243194334865761
    0.4927664793449597    0.5967761366869637    0.4035002927077842
    0.5921719707761607    0.5743597774348880    0.3976637550875394
    0.4451857413912551    0.4458379541737151    0.3471490234690611
    0.5322944174165494    0.4133361815643936    0.3877874026274754
    0.5272592850386291    0.5104075734265958    0.3541693466412911
    0.4240718969336329    0.5405028917939774    0.3583718630340810
