Au34 rank 11
1.0
   27.9372051431630410    0.0000000000000000    0.0000000000000000
    0.0000000000000000   28.4416316156263989    0.0000000000000000
    0.0000000000000000    0.0000000000000000   28.3514718877270226
  Au
  34
Direct
    0.4353505764759336    0.4983065272162966    0.6467540296059411
    0.5311584804860568    0.5022376854973606    0.6267699028763376
    0.4755314574100112    0.5834188025800238    0.6278543865792083
    0.4809497602473523    0.4163998634949978    0.6163550719831699
    0.3819795946981775    0.4259860880265519    0.6092727821526106
    0.6195903692761617    0.5137954491688353    0.5898235919203005
    0.5741207031658739    0.4261757865751882    0.5809604098586029
    0.3577246586966563    0.5180393702763944    0.5892500644760067
    0.5576410908113199    0.5847453966363075    0.5718854481557053
    0.3967067882920771    0.6043512576661403    0.5688593884698876
    0.5162905108927326    0.3519620441078349    0.5511485182980600
    0.4851540312539724    0.6470652923631306    0.5546839446181594
    0.4532542337900153    0.5259852016951531    0.5460045818313992
    0.4203266849853625    0.3724968457464280    0.5397195977258776
    0.6410170283713874    0.4571445037020425    0.5156970883614183
    0.4898619075748056    0.4433707775218490    0.5178140883983154
    0.3574178690645206    0.4510243207489042    0.5178837985068838
    0.6101692052351347    0.5486876700025410    0.4974553241928514
    0.3603100188721319    0.5470748931317156    0.4965548024998846
    0.5761867666635455    0.3918851790753184    0.4850571446187601
    0.5367881380861436    0.6165169331930942    0.4787802794092190
    0.4349065749919619    0.6157542074998215    0.4780108997097281
    0.4815052941899194    0.3629585696718762    0.4582892141481315
    0.5102436439100245    0.5200642868637892    0.4688925091342915
    0.3861832188936963    0.3883811392474864    0.4507045329493227
    0.3817413048000446    0.5764422238667428    0.4082818634024132
    0.5994672396867292    0.4735809969483281    0.4304996357032778
    0.3713033827964894    0.4800505470049485    0.4255489814290615
    0.5782454615556619    0.5658307455887849    0.4066015810366767
    0.4815524192593549    0.5845980081176245    0.3972645835487528
    0.4486106180102354    0.4264428697784816    0.3878382653489975
    0.5435286858317905    0.4027374355336504    0.3941609853985419
    0.5219907467761318    0.4939253403472320    0.3697687447697930
    0.4282992419674121    0.5134819216148179    0.3528100422389785
