Au34 rank 5
1.0
   27.9050533805422099    0.0000000000000000    0.0000000000000000
    0.0000000000000000   28.0017663537350359    0.0000000000000000
    0.0000000000000000    0.0000000000000000   29.3165095851793005
  Au
  34
Direct
    0.4001527585261210    0.4247321676803573    0.6590452180017052
    0.4804526235674632    0.4780459139024122    0.6506255705680040
    0.5604495622724114    0.5309327484706245    0.6456758329892769
    0.5611263363321509    0.4414904999139266    0.6062776858166962
    0.4762554583591916    0.5697859103137610    0.6132028187605573
    0.4735645050881399    0.3946246466892113    0.5991071584978330
    0.3981798886151396    0.5085995394025852    0.6053267508406587
    0.5669731309129803    0.6009199409700212    0.5816396056062493
    0.6239033244520328    0.5150398153733720    0.5769885862112526
    0.3818190163999568    0.4181015955784200    0.5687536861013762
    0.4839586885521921    0.6440701010935831    0.5529597367360496
    0.6291060274774380    0.4246569463998674    0.5410130693398396
    0.5418201600691521    0.3813880450029507    0.5335633088125658
    0.4093604338008853    0.5815969980778676    0.5444300541208876
    0.4460503164395567    0.3715089777785228    0.5106766026521017
    0.3612679644311655    0.4998219660323684    0.5176338701788810
    0.6391633148538802    0.5902958736205610    0.5202053224817219
    0.6388135815925403    0.5001114312426739    0.4824179605994706
    0.5540025365418906    0.6284305310068383    0.4893605492170491
    0.4582466528749010    0.6185455416757588    0.4664876975158695
    0.3608798744813607    0.4096527671171243    0.4798492472322083
    0.5906962221141747    0.4183368922682075    0.4556180086110770
    0.5161098807791051    0.3558459320057544    0.4471073586815844
    0.3709460391387878    0.5752906611159007    0.4590446384201007
    0.6182427819467582    0.5818252113754893    0.4312991663122293
    0.4330763864991665    0.3989904109026716    0.4184171544894225
    0.3761123690682593    0.4849060907453607    0.4230491629544143
    0.5238159484909838    0.4301173640515801    0.3868342542443091
    0.5264905399764941    0.6053214316557287    0.4009319043589613
    0.4389354780149980    0.5584184625607858    0.3937870592737123
    0.5998977963703348    0.5752093333741071    0.3410094428317042
    0.6018675994499069    0.4913407884891489    0.3947399741847932
    0.4396132686173458    0.4689674991333065    0.3543992916723911
    0.5196016839263357    0.5218708904865110    0.3494151479964226
