Au34 rank 12
1.0
   27.8762499418061651    0.0000000000000000    0.0000000000000000
    0.0000000000000000   28.3280953467388557    0.0000000000000000
    0.0000000000000000    0.0000000000000000   27.9553596871811898
  Au
  34
Direct
    0.4171947791171793    0.5009650754647575    0.6395921221063933
    0.5198518660964734    0.5020279819438626    0.6330973172057037
    0.4653750349873089    0.4175963867490985    0.6347491065707164
    0.4633545706635854    0.5778318709767254    0.6046924229872322
    0.5598680545421746    0.5733024172178082    0.5734093901413300
    0.6099619943652266    0.4936723275789273    0.5938123836437279
    0.3873919362959935    0.4342369137327164    0.5709673596958371
    0.5551404334562522    0.4127345349730277    0.5941126643513869
    0.3782541550644932    0.5314226950970993    0.5560243031777108
    0.4666189217263256    0.3657335584280791    0.5520786970919588
    0.4059955099303132    0.6228689855369504    0.5367179896913886
    0.5017715061760087    0.6461369852477404    0.5446183117934834
    0.4826929654271848    0.4649928506526183    0.5444365549198503
    0.5576649248805048    0.3565786672268171    0.5145097874713509
    0.6167023617490373    0.4343714232646520    0.5169459208931704
    0.4774240155842751    0.5497361969945157    0.5033492051831633
    0.6226272524244536    0.5346835804646638    0.5061261449750495
    0.3906095231700498    0.3794129292243860    0.4910193528773127
    0.3585814397273294    0.4705926565319600    0.4811812240465802
    0.3755786110154412    0.5668831731380302    0.4640638282718240
    0.5612046000084601    0.6081053267836887    0.4777112749091541
    0.4814282734535956    0.3666393673635839    0.4526974080107152
    0.4630054784253519    0.6327870551950350    0.4528600871959915
    0.4955539380637296    0.4718742281978253    0.4498384184537524
    0.5744013044187463    0.4029264725134908    0.4300683196035299
    0.6414156548875097    0.4728448280105196    0.4310808876468592
    0.4110726071285498    0.4224858674057190    0.4064661443785923
    0.6129634125823687    0.5624439459905473    0.4106848932296160
    0.5177645641463167    0.5747370745175955    0.3921046975481597
    0.3664742855017695    0.5055375718119405    0.3890987995777934
    0.4211835690816697    0.5859244181079607    0.3787339788906551
    0.5612939712099738    0.4872906019713639    0.3723714797365810
    0.5002449510232827    0.4102704511829449    0.3656343803139772
    0.4613139660233669    0.4994408712058897    0.3566257492803178
