Au34 rank 9
1.0
   27.3577269755555825    0.0000000000000000    0.0000000000000000
    0.0000000000000000   26.6422030824518146    0.0000000000000000
    0.0000000000000000    0.0000000000000000   28.4718952307536597
  Au
  34
Direct
    0.5016737627863953    0.4952447660730162    0.6531849946455442
    0.4778757921754754    0.3948075604481607    0.6390739569513264
    0.4046049659957653    0.4642378732093084    0.6165433499118453
    0.4292920560148165    0.5626524099111965    0.6297820019119015
    0.5735928316895785    0.4222820444667356    0.6152194500357108
    0.5232526834665699    0.5886114311544481    0.6068317878687653
    0.4186146393115879    0.3757416726058003    0.5614667747248434
    0.5956947863995347    0.5213492712378137    0.6284753812564955
    0.4423540359606079    0.6186091920528211    0.5498073040040470
    0.6364202038492121    0.4753078721195990    0.5521218107430805
    0.3713361307384476    0.5411191172738873    0.5541903787029189
    0.5208468410136059    0.3502826964896089    0.5607438847384387
    0.4920421304194391    0.4581668931504829    0.5607752031984732
    0.6075517188655742    0.5777091323222632    0.5485744822709160
    0.5360035630491434    0.6462411792412647    0.5251692393348971
    0.3474752227690834    0.4436057638588320    0.5383338522678415
    0.6139110111765070    0.3774184130787805    0.5362957928488976
    0.5115486685264000    0.5421235936719311    0.5134956493625891
    0.4600001270177073    0.3240413219205852    0.4887181732494852
    0.5505694184171657    0.3627446202201117    0.4631486674106297
    0.3792326653596422    0.6021459442411529    0.4775102780311923
    0.4916156581055877    0.4560026205105475    0.4680656953291633
    0.6552040015071601    0.5337276599074015    0.4754457886336113
    0.6191573311548887    0.4382531534887071    0.4586941507670153
    0.3683125347154164    0.5004861864929832    0.4605115095857080
    0.5757913394559215    0.5933941274863301    0.4499995930417970
    0.3965853232991588    0.4013890974950485    0.4644602090861489
    0.4701694411755634    0.3702005606860645    0.4030802870157925
    0.4128248153951292    0.5627600311059437    0.3950165948645832
    0.4760318465307613    0.6179433439961064    0.4507605629711278
    0.6064876980004038    0.5147300934628662    0.3936208350350089
    0.5092722886279207    0.5370083781489409    0.3932065464975366
    0.4324059288803373    0.4635719061289777    0.3885306389914424
    0.5450509281302165    0.4355114196634924    0.3871874465872893
