Au34 rank 7
1.0
   27.7518689662309868    0.0000000000000000    0.0000000000000000
    0.0000000000000000   28.0610943685839018    0.0000000000000000
    0.0000000000000000    0.0000000000000000   26.9696529920855355
  Au
  34
Direct
    0.5628324737790961    0.4913587738124699    0.6443544206997946
    0.4692219397721522    0.4730127853753561    0.6225250257308158
    0.5107807753076130    0.5631491626631409    0.6035779588038613
    0.5398683894849923    0.4037393814029235    0.5987770314817265
    0.6057974919638127    0.5466802991235242    0.5688492622356546
    0.6281644703488038    0.4497967122542051    0.5815311787935967
    0.3756478367036495    0.4586077438546485    0.5977961771868442
    0.4433977034563963    0.3866030807439512    0.5748713274052617
    0.4553369861523208    0.6315883060326689    0.5613243648817314
    0.4131569345556976    0.5461352883232771    0.5793476202969789
    0.5162220074956319    0.3402083737974690    0.5248689406641851
    0.5502401357424561    0.6188766355575491    0.5259431056940763
    0.5425158751826814    0.4773930132331788    0.5241578705645983
    0.3621548942219524    0.4031893220712310    0.5152286305781368
    0.6407103090084949    0.4836782823464372    0.4870130927869096
    0.5979743856715309    0.3908945757395416    0.5065289633543631
    0.4752861797696607    0.6490547702122957    0.4634089978314564
    0.3956023818625400    0.5918259649600869    0.4873143973772244
    0.4392962989507926    0.3632258177424819    0.4670207677768634
    0.3546336216113088    0.5026112066734590    0.5060959309614171
    0.4495320211820400    0.4610623300006846    0.5015117943015163
    0.6259086692046901    0.5788554447118676    0.4746549793651278
    0.4890056748103371    0.5467688059142206    0.4827826088222857
    0.3817226629545055    0.4383981291689972    0.4224867404030250
    0.6161453459404378    0.4222358932524136    0.4119183541961832
    0.5494227120477195    0.6025727894179812    0.4165143817367970
    0.3678828891588747    0.5336558445960886    0.4101602642409203
    0.5332260234649975    0.3716608445722331    0.4288007086586741
    0.4490649909914026    0.5849982719664754    0.3914129780214713
    0.4547278328139192    0.3939116050965799    0.3716630739991352
    0.4424204217650302    0.4900313942704124    0.3584988742681132
    0.6003517176394759    0.5177120877089439    0.3980834159016207
    0.5354170224637755    0.4485841453102868    0.3609422729719309
    0.5233680489816085    0.5431038740745513    0.3401944561196697
