Au
 1.0000000000000000
    28.2267511989999988    0.0000000000000000    0.0000000000000000
     0.0000000000000000   28.2029662109999997    0.0000000000000000
     0.0000000000000000    0.0000000000000000   28.3307655310000008
 Au 
  34
Cartesian
 13.6712199999999999 13.9511500000000002 18.3290499999999987
 16.4546199999999985 14.4073600000000006 18.2975700000000003
 12.0649200000000008 16.0517099999999999 17.6193899999999992
 12.8171199999999992 11.4374699999999994 17.6582900000000009
 14.7799600000000009 16.4823400000000007 17.5758100000000006
 15.5295100000000001 11.8942899999999998 17.6146799999999999
 11.2623300000000004 13.5458900000000000 16.8585700000000003
 17.3330400000000004 15.9611099999999997 16.1549200000000006
 17.7878299999999996 13.1761599999999994 16.1788899999999991
 13.0496200000000009 17.6379799999999989 15.5995799999999996
 14.2611399999999993 10.2182300000000001 15.6614299999999993
 15.1217600000000001 14.1664899999999996 15.7814200000000007
 10.8982100000000006 15.8051300000000001 15.1556400000000000
 11.6376299999999997 11.2612500000000004 15.1935199999999995
 15.7209000000000003 18.1762900000000016 15.6577400000000004
 16.9653500000000008 10.5550499999999996 15.7229500000000009
  9.9996100000000006 13.3212100000000007 14.4390499999999999
 17.8736999999999995 14.5984300000000005 13.7321899999999992
 13.5157299999999996 15.2428200000000000 13.9406800000000004
 13.9468999999999994 12.6076400000000000 13.9585600000000003
 11.9016800000000007 17.4454099999999990 13.0935299999999994
 13.1162100000000006  9.9910599999999992 13.1570999999999998
 17.3626499999999986 17.2564600000000006 13.6845099999999995
 18.2351199999999984 11.9157899999999994 13.7300199999999997
 14.6753999999999998 17.7362700000000011 13.1155600000000003
 15.8389900000000008 10.5958400000000008 13.1776000000000000
 10.9963099999999994 14.9200199999999992 12.4356600000000004
 16.6240400000000008 12.9502000000000006 11.8162199999999995
 11.4574999999999996 12.0875199999999996 12.4612499999999997
 16.1753600000000013 15.7313700000000001 11.7887400000000007
 13.4294499999999992 16.0857700000000001 11.1973099999999999
 14.1367200000000004 11.7301500000000001 11.2322600000000001
 14.9713700000000003 14.0917499999999993 10.0010499999999993
 12.3089200000000005 13.6616000000000000 10.4055099999999996
