Au34 rank 1
1.0
   28.3068351670429124    0.0000000000000000    0.0000000000000000
    0.0000000000000000   29.0161067051924491    0.0000000000000000
    0.0000000000000000    0.0000000000000000   28.4985095443240439
  Au
  34
Direct
    0.4611926527544516    0.5398783473210547    0.6485852798022697
    0.4876285853447598    0.4542035192195388    0.6199073195407762
    0.5829217981315437    0.4458596663488338    0.6059075336683293
    0.5471300532289862    0.5334348636943569    0.6061572388288144
    0.3904697363674713    0.5820752363746571    0.5979683494547993
    0.3981355581963670    0.4863549389888267    0.5972301458699290
    0.4244614241929234    0.3968278603351523    0.5776898423969998
    0.4845615462201356    0.6012685021936266    0.5772483048174348
    0.5213245227465473    0.3848270194697225    0.5638152933547459
    0.5756942089838145    0.5979665358790115    0.5428433636005053
    0.6153076352988451    0.5099277528128263    0.5420328151405993
    0.3547663508275889    0.4396318491851713    0.5241685217945107
    0.3550699412976703    0.5331389089626778    0.5240509212169651
    0.3627722838636205    0.3451827698678619    0.5222977946682413
    0.6038138640241062    0.4160045326518910    0.5172196223343325
    0.4143242068295035    0.6120027652507667    0.5103129216581006
    0.4564052042204249    0.3463344430935768    0.5008095220333688
    0.5039998263709967    0.6377351826656813    0.4895481125283327
    0.5490274443957722    0.3480336289354803    0.4793672676024626
    0.5967111381751007    0.6565149310153156    0.4680531975016661
    0.6214085347799494    0.5661457981304837    0.4624131178217518
    0.6457245544713092    0.4766272977469752    0.4569117057980775
    0.3934903001922360    0.3966341391149230    0.4455956968186602
    0.3539426982886775    0.5819575532729275    0.4421730293229895
    0.3611258796973640    0.4862156361422421    0.4395641694100255
    0.4475460520956864    0.6011814352381850    0.4194469485462381
    0.5813543742645970    0.4158551731777567    0.4212448021939803
    0.4865555547488532    0.3846892025132593    0.4156886205156328
    0.5445778226622915    0.5977316388356732    0.4103778945389437
    0.5804565440686003    0.5096603917143319    0.3938704540875934
    0.4312963901071181    0.4539918408646373    0.3800099261523240
    0.3948960048621669    0.5397024146098577    0.3657999680394803
    0.4908190931857077    0.5332444612848388    0.3660656274845818
    0.5229983330213994    0.4455934470170404    0.3508483355105326
