Au34 rank 17
1.0
   28.0908641259658722    0.0000000000000000    0.0000000000000000
    0.0000000000000000   27.7689436733660671    0.0000000000000000
    0.0000000000000000    0.0000000000000000   28.8976819500546895
  Au
  34
Direct
    0.4755810113807422    0.5123247566378503    0.6547659902672155
    0.5689693746307688    0.5166991855058133    0.6257101356847310
    0.5200140215807370    0.4309923258708377    0.6233023888557419
    0.5042054935096557    0.5940920658319487    0.6080907508923991
    0.4219092047094374    0.4482637166888723    0.6041137889137556
    0.4139143516626783    0.5490735956658589    0.5904532077276062
    0.5988414378220304    0.6019447772130322    0.5843839036184254
    0.4642115438931987    0.3625548956253347    0.5795859674393752
    0.6438395775919409    0.5176765566387833    0.5639124859017501
    0.4404267159032013    0.6332236115601667    0.5460563146396279
    0.5593073705077619    0.3684286024138517    0.5608558643714179
    0.3569958707737924    0.4858956996168358    0.5434084535859821
    0.6399401594225225    0.4209938657978821    0.5493022614938602
    0.5544649546353924    0.4726715283917773    0.5360780130112095
    0.5356586402765903    0.6383928852002879    0.5215288929467513
    0.4919398779554041    0.5454056751069133    0.5193392389222065
    0.4035809752488338    0.4035934060599223    0.5175721266041491
    0.3879197165736918    0.5664590223522852    0.4971070233613344
    0.6138680952370807    0.5788137062722472    0.4922575061239662
    0.4938328987867322    0.3596004263238399    0.4877382618310609
    0.4815276357761157    0.4622170549069444    0.4752685183495059
    0.6389865015451398    0.4841890823313369    0.4736270978012369
    0.5868548738216052    0.3925864307508108    0.4720758161762355
    0.4621384642604278    0.6206096659639976    0.4534583510422731
    0.3803649930596277    0.4766531143374994    0.4514226200008560
    0.5571153972045744    0.6257902406099811    0.4297659174812563
    0.4252343060098833    0.3910024462175490    0.4253629565877052
    0.4047492933963255    0.5592574491885186    0.4038129649804883
    0.6121574893285966    0.4406126951347875    0.3937339835644165
    0.4992714725294822    0.5647553785705950    0.3809659127948006
    0.5944316605189547    0.5387381645700288    0.4058413555952491
    0.5199673001940162    0.4028749713400998    0.4018312945139160
    0.4488253291065696    0.4752154913660173    0.3792485233180927
    0.5394840049505862    0.4829925464262901    0.3465714314782978
