Au34 rank 2
1.0
   27.7076855205619736    0.0000000000000000    0.0000000000000000
    0.0000000000000000   27.5495159302007195    0.0000000000000000
    0.0000000000000000    0.0000000000000000   28.4956638152909036
  Au
  34
Direct
    0.4884853179569638    0.5170751224956124    0.6369161445007488
    0.5798567340149382    0.4883192291706476    0.6011047318520002
    0.4226088536807416    0.4388727090534425    0.6197625680160282
    0.4597957864487563    0.6099517442224792    0.6242226406510196
    0.5205679098055706    0.4241327023120154    0.6445625088443173
    0.5480907858750391    0.5858675947428386    0.5912186820008619
    0.3949140802461785    0.5350302324648185    0.6041587760700451
    0.5690918444524128    0.3939026925190289    0.5618587594554604
    0.6347358683498390    0.5559566025825009    0.5570230081591965
    0.3469165082980005    0.4601294202023881    0.5609077202997930
    0.4771222286425523    0.3580855098110067    0.5871206390323825
    0.4873982098379678    0.4569761786523939    0.5459121366108582
    0.3904485818914644    0.6235948529021031    0.5579057786467753
    0.4051586213447219    0.3877959091850812    0.5285600209117159
    0.4861580252178461    0.6403235994606942    0.5342150930345161
    0.3534424753952586    0.5450616033915887    0.5122753184481522
    0.4143712355199473    0.6154611341617563    0.4655527957674121
    0.4499569496138673    0.5154061267158965    0.4793218145084095
    0.4981069460984601    0.3602525725977588    0.4932035706410505
    0.6280173945111155    0.4620810570358326    0.5166807628828418
    0.5440786912561544    0.5226374998658648    0.5021924057476700
    0.5894340022881157    0.3850750136497848    0.4675230847826858
    0.6404720133779983    0.5467053861288362    0.4618982046664752
    0.3643403557851603    0.4540751466603516    0.4650397143296664
    0.5782970360098991    0.6186668633466683    0.5004145609923130
    0.3702584685050988    0.5408979383924454    0.4166098413635712
    0.4229927938666070    0.3800800621518978    0.4338868615762799
    0.5050818446712426    0.6429133546616784    0.4396556627768047
    0.5936241074710809    0.4706521849767832    0.4199972868040085
    0.5140565332223634    0.4085896027966212    0.4076689738927995
    0.4318802524880267    0.4672539833545414    0.3888838654067784
    0.5620653529401677    0.5690857809393489    0.4083292920561853
    0.4625165173267687    0.5674468636540652    0.3899139310806127
    0.5215550655351405    0.4939545890558171    0.3583634023859533
