Au34 rank 15
1.0
   28.1194104301122536    0.0000000000000000    0.0000000000000000
    0.0000000000000000   27.8233228551202316    0.0000000000000000
    0.0000000000000000    0.0000000000000000   28.2869621088709238
  Au
  34
Direct
    0.5079676182100155    0.5223646044528895    0.6383246543056745
    0.4127480749935200    0.5008338585470145    0.6328436365947047
    0.4766994355110820    0.4284654654386960    0.6463804599106628
    0.5973379995013072    0.5429806938849537    0.5983633932366886
    0.5695041283684689    0.4477004448983157    0.6126360253225370
    0.4387414852968779    0.5872369434324843    0.5920434930477582
    0.5274199474024068    0.6148729264867122    0.6166234800267748
    0.5266038750006102    0.3598760417015403    0.5949707838230597
    0.4305129739518077    0.3732862456380958    0.5766323141616869
    0.3546133523091508    0.5455999569924069    0.5672515944639351
    0.3681631154826047    0.4472224210212327    0.5645199244930931
    0.6443866716321796    0.4686303782448595    0.5539772840350913
    0.5887722148398731    0.6269650321858328    0.5437351608940623
    0.4808059690311760    0.4576242912530372    0.5508820959625821
    0.5235265807467064    0.5414719494235176    0.5275501352579536
    0.4907098372421019    0.6387034246599904    0.5249419410856693
    0.5894125558579122    0.3921173775618355    0.5291517088869416
    0.6271121481463032    0.5481496061835447    0.5004151088375981
    0.4049955121541071    0.5923991383390173    0.4985260866257608
    0.4959137852977683    0.3609114913009358    0.5017794172642122
    0.4069109909945733    0.4032984909263825    0.4864181853820864
    0.3656380643468291    0.5008571514480474    0.4822399711922493
    0.6207490110612622    0.4565135880877965    0.4597333363996140
    0.4786395966260777    0.4887647942724540    0.4603475834897049
    0.5597284299179910    0.6103908611246855    0.4534213836178825
    0.4658771496071578    0.6274766701103929    0.4318811797014507
    0.5665399157832232    0.3767725722762996    0.4367463298545624
    0.6076551018108134    0.5385719823913551    0.4061653974376068
    0.4736718816936861    0.3972663932867752    0.4125003948139392
    0.4133627772136521    0.5478048363038126    0.4089422734287719
    0.3861193617141598    0.4485327259416079    0.4044235227324794
    0.5521973967160511    0.4599598857835583    0.3879289526766833
    0.5137132287988593    0.5561159456998831    0.3844334116186963
    0.4628126885953785    0.4786643039096620    0.3546676056016392
