Au34 rank 18
1.0
   27.8758300148126672    0.0000000000000000    0.0000000000000000
    0.0000000000000000   28.1167606305591207    0.0000000000000000
    0.0000000000000000    0.0000000000000000   27.2063590241269466
  Au
  34
Direct
    0.4793744477205363    0.5755998824256174    0.6438460460304276
    0.5399793364050411    0.4986292503932391    0.6368144789763451
    0.4994101470233624    0.4087446239046944    0.6270763489801974
    0.4386745310992117    0.4867635601124481    0.6361217559052129
    0.5606016118426701    0.5861413295414624    0.5880184141665492
    0.4733407048239771    0.6313150563762023    0.5604638961363773
    0.5817943113539089    0.4266482925494853    0.5735275066203128
    0.3986695536684599    0.5672142325347103    0.5868919665614879
    0.3517588385855918    0.4822257902336469    0.5905581930348728
    0.6259085920281187    0.5140877430871971    0.5919295286155923
    0.4154795560843083    0.4072720673694418    0.5727909435995626
    0.4815222436100131    0.5540558070728081    0.4947754354154960
    0.4921136495058526    0.4736133829332010    0.5444486461687569
    0.5041809087595756    0.3721043142527626    0.5332474060702606
    0.4728055764186076    0.6419402873982707    0.4505109246511683
    0.6132272858466199    0.5600049664675508    0.5025247524997621
    0.3421422698410373    0.4311068504474276    0.5063589033799250
    0.4223505582214076    0.3872845282739011    0.4730256802452067
    0.5067044760721374    0.3541913979408669    0.4345881901154500
    0.5560579580829020    0.6395072353772088    0.5046082413190532
    0.3543650058673407    0.5296832157434695    0.5011134426059017
    0.6480687857005571    0.4669337579374809    0.5077253003798269
    0.3916319845192201    0.6202643718621321    0.5033841491827225
    0.5502537766220160    0.4230357397491678    0.3764575484071213
    0.4926531323010377    0.4724792076729293    0.4445817116562465
    0.3819417341363691    0.4692750314928004    0.4245284263431897
    0.5806176289511464    0.4059208785336751    0.4736263003280370
    0.5597381013398637    0.5857701552249908    0.4209469856434350
    0.4484843545230850    0.4108292308043925    0.3760416599011722
    0.4784061700818891    0.5941242358979762    0.3634058708208019
    0.4006676644599539    0.5670295862338181    0.4197563278419074
    0.6010477078266455    0.4951271130131836    0.4256202397569643
    0.4395682127246160    0.5045906163088775    0.3513941251945354
    0.5377469590230567    0.5164312641660070    0.3517680102975819
