Au34 rank 3
1.0
   27.8497835271153420    0.0000000000000000    0.0000000000000000
    0.0000000000000000   27.6618221977632111    0.0000000000000000
    0.0000000000000000    0.0000000000000000   28.5537515030592459
  Au
  34
Direct
    0.4664712734965193    0.5037416131493405    0.6414088802499939
    0.5609658411841385    0.4846524234659941    0.6150479828745686
    0.5278639874635592    0.5790610131161875    0.6267607838501362
    0.4379778351080050    0.5799840855475590    0.5838458420846760
    0.4837061037418648    0.4232535345175695    0.5901793125618092
    0.4051605533764726    0.4841122938416645    0.5703417080441855
    0.5779034980430169    0.4018982639034905    0.5592867270730233
    0.6029121905635209    0.5690727905599640    0.5662562272838984
    0.6433536103440511    0.4780949122173021    0.5600291088871238
    0.5229469164401980    0.6312902791816336    0.5459679595774793
    0.4989525163175096    0.3453231541062369    0.5347581527702325
    0.5525152298224330    0.4915521326132315    0.5149935988641222
    0.4783038552865839    0.5494465789984506    0.4960606783767077
    0.3762375587496171    0.5583063567280913    0.5081978839133001
    0.3481887742398023    0.4622850110836295    0.4965347753251905
    0.4327685087562163    0.6414633840356025    0.5067254954901004
    0.6009898977841966    0.6259318373055088    0.4872993464259317
    0.5743467083963908    0.3527105210763948    0.4741870258039317
    0.4220739786294911    0.4015649809822404    0.5147606389613515
    0.6410806323449890    0.5359633843783900    0.4788034434640296
    0.6308919028504881    0.4331308404000473    0.4744881192754157
    0.5125765701055587    0.6357524766639659    0.4462988261255318
    0.4814591736859015    0.3682465458741135    0.4411689953586018
    0.4942104856706059    0.4713074089966595    0.4434164173774288
    0.3587804253907004    0.5198056566581384    0.4196299306533644
    0.4211708956201652    0.5956802375072165    0.4214503330732507
    0.4026935156524752    0.4293031422386214    0.4211524443813164
    0.5855547904051789    0.5772824601011167    0.4052261263120955
    0.5680597790543406    0.4111322994535267    0.3975861969004608
    0.6289953107545166    0.4891664283100369    0.3950394452344144
    0.4987302095599804    0.5902534538371037    0.3621564618005200
    0.4384541180991937    0.5115992621103220    0.3647749437147842
    0.4781303543885216    0.4202660645562230    0.3576549014502584
    0.5402071932665490    0.5007118006458692    0.3552754351358614
