Au34 rank 13
1.0
   26.4001271409567977    0.0000000000000000    0.0000000000000000
    0.0000000000000000   27.7091187467217530    0.0000000000000000
    0.0000000000000000    0.0000000000000000   27.8172465280781260
  Au
  34
Direct
    0.5006060142826568    0.4662353983670121    0.6617135499492274
    0.4056112865484064    0.4903882210647248    0.6282233452154743
    0.4848743278736248    0.5592882124447657    0.6271466110541351
    0.5793556805472525    0.5103010614561281    0.6141269253698692
    0.5659236479484835    0.6032707921658772    0.5829488778130909
    0.5573389209215596    0.4084232671944268    0.6006290163985852
    0.4513778673135206    0.3953109995171126    0.6100435510370724
    0.3881895600572548    0.5812301976883466    0.5949633367115527
    0.3508196159200531    0.4184003230718747    0.5880129155896480
    0.4008766154391002    0.3471092195376951    0.5375998592364530
    0.5036094123378911    0.3575359004428049    0.5295587641942936
    0.4694209502065552    0.6263366553293657    0.5527904580413610
    0.4900337024184951    0.4776112871201220    0.5574136931730220
    0.6430754213532521    0.4533812934687407    0.5620657561352894
    0.6205522202828403    0.5418452166346774    0.5250051849681112
    0.3457402036193759    0.5073205809752168    0.5429075658922674
    0.6048446857836965    0.3734763831281321    0.5183739348460794
    0.5574870390567347    0.6139163809264573    0.4854788714084614
    0.3534159361768768    0.4214192454984695    0.4898140885910126
    0.6172190493559396    0.4580894113109031    0.4651430813070890
    0.3798324218454437    0.5928520543469136    0.4980027615331260
    0.4408364064284776    0.3565667178791786    0.4477517602109452
    0.4625916176502730    0.4521226456154381    0.4669850371141800
    0.4768444666326284    0.5447124640423708    0.4892055468206702
    0.6075379602545713    0.5489095634269732    0.4277117945599876
    0.5461019751719796    0.3868915399165497    0.4402163730034024
    0.4630040061947393    0.6431724965396416    0.4560120776964350
    0.3605963142082670    0.5094951841999455    0.4443539029100688
    0.4798163929646265    0.4065835397424732    0.3679423442574823
    0.3813545381740872    0.4246485839281803    0.3961387779986600
    0.5123388799152842    0.5747726651851008    0.3966617600304023
    0.4039420342581695    0.5861993624901468    0.3995114398358944
    0.4454703500509792    0.5010537050148659    0.3722871000180275
    0.5473234229014485    0.4777555438429512    0.3925498605700442
