Au
 1.0000000000000000
    29.7793697190000017    0.0000000000000000    0.0000000000000000
     0.0000000000000000   28.1353333280000015    0.0000000000000000
     0.0000000000000000    0.0000000000000000   28.6307466310000009
 Au 
  34
Cartesian
 15.2131900000000009 13.7746999999999993 18.5969900000000017
 16.2902400000000007 16.2826899999999988 18.5830300000000008
 17.0494200000000014 11.8081600000000009 18.1329899999999995
 13.6184799999999999 15.9302700000000002 17.8861899999999991
 17.7129200000000004 14.3271599999999992 17.3163899999999984
 12.5739500000000000 13.3745899999999995 18.1207400000000014
 14.3876600000000003 11.3984500000000004 17.4282800000000009
 11.2903900000000004 15.2864500000000003 16.5535700000000006
 16.4279499999999992 10.0056300000000000 16.1452899999999993
 15.0508699999999997 18.1327099999999994 16.9625799999999991
 17.2663599999999988 16.7354799999999990 16.0159200000000013
  9.9421999999999997 13.0004399999999993 17.4129199999999997
 11.9327600000000000 11.4895600000000009 16.1710999999999991
 18.0322999999999993 12.2044499999999996 15.5595800000000004
 12.8807899999999993 17.2666399999999989 15.5685800000000008
 14.0502300000000009 10.3711400000000005 14.8726199999999995
 10.4074899999999992 13.3461599999999994 14.7563700000000004
 18.8605100000000014 14.7640100000000007 14.8984799999999993
 15.3926099999999995 17.8196100000000008 14.2801799999999997
 16.5590499999999992 10.9263999999999992 13.5860199999999995
 11.3523599999999991 15.8110900000000001 13.8160600000000002
 12.0730100000000000 11.5584500000000006 13.3860100000000006
 17.6650300000000016 16.6949599999999982 13.2855600000000003
 18.3084300000000013 12.8986599999999996 12.9037500000000005
 13.0396300000000007 17.7859400000000001 12.8864099999999997
 14.2791599999999992 10.4616299999999995 12.1476299999999995
 10.8838299999999997 13.6933900000000008 12.1298499999999994
 19.8142700000000005 15.1813599999999997 12.3506699999999991
 15.3171599999999994 16.6869699999999987 11.7816600000000005
 16.0374100000000013 12.4323700000000006 11.3509100000000007
 12.7668499999999998 15.5196100000000001 11.3764199999999995
 13.2332900000000002 12.7636400000000005 11.0983699999999992
 17.3771200000000015 14.8850099999999994 11.1836199999999995
 14.9590899999999998 14.5929900000000004 10.0389300000000006
