Au34 rank 14
1.0
   28.0043669548404317    0.0000000000000000    0.0000000000000000
    0.0000000000000000   26.6320658630058524    0.0000000000000000
    0.0000000000000000    0.0000000000000000   28.4095576565972863
  Au
  34
Direct
    0.5151157453782705    0.5276215402983310    0.6602083351336684
    0.4554244513627110    0.5881678193180301    0.6043336539051558
    0.5856234011608591    0.4748166282807201    0.6181621212307787
    0.4232573112040194    0.4991486251086815    0.6454093282208837
    0.4952970354043240    0.4320437718842545    0.6208189468456433
    0.5547058143633441    0.5895388447528985    0.5954623001726898
    0.4030517746308646    0.6230205032111911    0.5272138745576227
    0.4705625582644352    0.3574714432979134    0.5579688503360900
    0.6404118685573854    0.5476497147728261    0.5690119143715263
    0.5607330504413670    0.3953297306760611    0.5544390370786084
    0.4046460481208727    0.4294621477818055    0.5777770429799596
    0.5000247327574112    0.6403030678534488    0.5295061655783135
    0.4641830096880010    0.5367245844772430    0.5140442424235366
    0.6459420119261721    0.4468307383276428    0.5453648431414337
    0.5534051470151132    0.5030581841828781    0.5278391457897063
    0.3759782272576477    0.5328617306525278    0.5671836141826311
    0.5048081478792384    0.4787135297961253    0.4479962720168872
    0.5937750999714920    0.6104290324188956    0.5078321177435839
    0.5352839165376846    0.6536783876889795    0.4409176705992489
    0.3412337136212339    0.4582837986395430    0.5103866940136415
    0.5103242403215202    0.3701881073627360    0.4714449890660121
    0.4131786121105129    0.3911696874180033    0.4856416755626313
    0.6406403135195086    0.5186170326012959    0.4734048328996730
    0.5990290576875381    0.4210273918543365    0.4651936544415203
    0.6096052837573744    0.5922232043711757    0.4134567060722114
    0.3683801029655903    0.4545425063548192    0.4186835813154628
    0.5179116461548700    0.5724850160987044    0.3830204839633364
    0.5909470336065170    0.4939477302203112    0.3917624518685829
    0.3719777376978370    0.5466053448911283    0.4671010967014091
    0.4458097475273254    0.6133146812054104    0.4403505668792549
    0.5490477813513144    0.3985660363841352    0.3859457396100466
    0.4510477880042983    0.4076594691287044    0.3967359806970534
    0.5034908198889353    0.4794791286775636    0.3440502963657894
    0.4289303873307612    0.5269724935233462    0.3886222932184540
