Au34 rank 8
1.0
   29.2012925776442174    0.0000000000000000    0.0000000000000000
    0.0000000000000000   28.8644973672334686    0.0000000000000000
    0.0000000000000000    0.0000000000000000   28.8522182348245195
  Au
  34
Direct
    0.5581029021947158    0.5239861776949497    0.6512909748934254
    0.4647715453845754    0.5205990096095693    0.6289015638272092
    0.5197822098791077    0.4429305040463778    0.6228883110464403
    0.5141391544224014    0.6036634295012866    0.6262386671795863
    0.4292437409643630    0.4353217428336872    0.6033550132032651
    0.6049367143585030    0.4785597086816097    0.5836300140929798
    0.5836746465330660    0.3867901285161991    0.5833953167095592
    0.5874467213401616    0.5719591157895466    0.5723468085050406
    0.4363383345147467    0.5945542693891173    0.5752791998755022
    0.3844953578211753    0.5166662430669147    0.5777806256704127
    0.4914329180955189    0.3782491759027736    0.5584459895888458
    0.3392766914235089    0.4327209159390386    0.5739028444899872
    0.5214716065758689    0.6301958451867833    0.5360513655697643
    0.6375158368276485    0.5225584245815950    0.5074546499893847
    0.5619204184592147    0.3483020398000125    0.4997780367301285
    0.4070896878895934    0.3960760648228854    0.5180973836306145
    0.6141954345209931    0.4295995951061995    0.5019047992623168
    0.4379737123351744    0.6516284859115469    0.5002271823025822
    0.3857229360639075    0.5703313068003881    0.4981093448324809
    0.5927891746806714    0.6038354096996401    0.4819059241731566
    0.3623711316457360    0.4773499867262654    0.4925483977655387
    0.4784511846330400    0.3697693914590116    0.4639598301818704
    0.5084254830023085    0.6216626987485671    0.4415751323855804
    0.6606249762112585    0.5672047580565498    0.4260726746429560
    0.5635673895244279    0.4053789139402454    0.4247293129324985
    0.6154078214384644    0.4832659053051533    0.4222103904361242
    0.4124555480670896    0.4279766040098225    0.4276332076728904
    0.4161685979534214    0.6131276517422430    0.4166164296558844
    0.3949327237727849    0.5213508049726947    0.4163388016035245
    0.5706172051204279    0.5646135197585092    0.3966544000248762
    0.4800997131395811    0.5570131497964341    0.3771356482060670
    0.5351086523351231    0.4793346739345699    0.3711193379290598
    0.4857532692559954    0.3962529285719031    0.3737649152506384
    0.4418081710560749    0.4759448709142328    0.3487107550705770
