Au34 rank 4
1.0
   27.9130017676649871    0.0000000000000000    0.0000000000000000
    0.0000000000000000   28.2379048954455314    0.0000000000000000
    0.0000000000000000    0.0000000000000000   26.6292502198853320
  Au
  34
Direct
    0.4898264483859536    0.5373399252310606    0.6400606814804622
    0.5515876635803091    0.4571746667677163    0.6430794293671895
    0.4579526408168313    0.4398230394167363    0.6202864079744647
    0.5908752778648609    0.5423848037415463    0.6203173487391195
    0.3950004698518859    0.5138860213300512    0.6237323653652350
    0.4299031579841504    0.5923317096890546    0.5773484474268417
    0.6124590997975410    0.4631697984975058    0.5578147234835060
    0.5315553508194507    0.6035448016096517    0.5730099332869111
    0.5167695372014650    0.4968771940193774    0.5468693411329694
    0.3577433107526016    0.5371789543275559    0.5318900865458931
    0.5355329874526155    0.3929869643076508    0.5684087999596005
    0.4416364637648869    0.3671569225493647    0.5540740389633798
    0.4725415336764561    0.6620053691881445    0.5209093186571483
    0.3781379206854517    0.4416071362397456    0.5569047129217596
    0.6092198793240251    0.5574904150339435    0.5214484085606260
    0.5969347993808767    0.3924519604695198    0.4887903006577185
    0.4795444150162120    0.5606695333854170    0.4812981216977988
    0.4032844580150425    0.3964066523786773    0.4644780434857138
    0.3936954268107564    0.6150230073087208    0.4801998978130337
    0.5559546995412483    0.6286670880535483    0.4730025006780113
    0.3315982015189887    0.4620362808673125    0.4697744717343441
    0.6217358393248129    0.4807565383729392    0.4549987751158518
    0.5018339998492565    0.3682181355170164    0.4718598669332822
    0.4785455815977152    0.4677440566807474    0.4598874434956104
    0.5561945898655480    0.4213274538744063    0.4008814083794551
    0.3447279458835913    0.5487132644353473    0.4278592886744420
    0.6196496458488876    0.5736519144795514    0.4215821849577912
    0.4698047094873958    0.6461961082841979    0.4188179875229657
    0.4622517811519072    0.3990911373649608    0.3810231945818171
    0.5874707589926094    0.5030570387927514    0.3593374693145411
    0.4301969650984325    0.5640542504892152    0.3818207274803244
    0.3964091784976922    0.4714351767132895    0.3906584691640961
    0.4899415709310732    0.4900527940308235    0.3532159265264659
    0.5289688297101597    0.5787639125910929    0.3796820346203859
