Au34 rank 6
1.0
   27.1290632881917446    0.0000000000000000    0.0000000000000000
    0.0000000000000000   28.0690498187070574    0.0000000000000000
    0.0000000000000000    0.0000000000000000   28.0839024952747600
  Au
  34
Direct
    0.4748235323490156    0.5113135063785044    0.6409104051400817
    0.5622916902368437    0.4571146696517469    0.6485189530264617
    0.5691767488259012    0.5532782608216529    0.6427136056329643
    0.4021153137147590    0.5673076914675255    0.6022018952342486
    0.4829135433599099    0.4171221494501618    0.6054479218935885
    0.4959253960393035    0.6016689531666907    0.5969441580788106
    0.3989222199934266    0.4700204953831780    0.5875963355272814
    0.6279057571103580    0.4990660766888826    0.5792485546096361
    0.5273339930365284    0.5050555375558604    0.5517759747885423
    0.5859935663556295    0.4093365228154304    0.5682997531616848
    0.4303101236982236    0.6189283934201749    0.5222900654125555
    0.5937426428097943    0.5943063624858267    0.5583004064467970
    0.4855432057005056    0.6225302080043320    0.4373986536909973
    0.3667320786099807    0.5407035204988205    0.5158553775580184
    0.5128770451411825    0.3447146292855420    0.5463647937019762
    0.4206624377922291    0.3828054482913534    0.5349883345865518
    0.3462419812748048    0.4462337963081945    0.5073288810071552
    0.5247444251066994    0.6556070588896062    0.5208771448396311
    0.5243074513090434    0.5228823398146684    0.4565984183382414
    0.6559433503567004    0.5458939030138732    0.4978881323864238
    0.4915335773270524    0.3735512585534705    0.4546391588789334
    0.6302473822402465    0.4523918583298967    0.4891419750528214
    0.5884067367488215    0.3635938695956367    0.4825430150146222
    0.4525635958836739    0.4711350614451053    0.4972408119559441
    0.3906842330758623    0.5907165134364339    0.4358819633593152
    0.5673790847743023    0.4275704051970717    0.4134859961378005
    0.3953586932572449    0.3958466704844232    0.4383209021721038
    0.4564375361830563    0.5437374799987119    0.3775796095755483
    0.5883077142058817    0.6079920213270602    0.4603300120981632
    0.6169450166976919    0.5164756275212685    0.4125362656562664
    0.4663172689272839    0.4449095923962417    0.3900893907702339
    0.5509030691455338    0.5846839175560036    0.3734839025201835
    0.3811212346116267    0.4938725362959159    0.4244317773664859
    0.5407664352658935    0.4922151839479446    0.3467094478262603
