Au34 rank 20
1.0
   28.4240042201834058    0.0000000000000000    0.0000000000000000
    0.0000000000000000   27.5836296846890221    0.0000000000000000
    0.0000000000000000    0.0000000000000000   29.2170809757957173
  Au
  34
Direct
    0.6062599167734161    0.4706070227510887    0.6572278314900524
    0.5487997377225956    0.5462924665449256    0.6320595735398247
    0.5150205861323607    0.4518170749994760    0.6235111707112249
    0.4540012175885267    0.5289642867498062    0.6152868639030628
    0.4929649212023914    0.6195303479117845    0.6018929774210230
    0.4293555379343459    0.4379030257570857    0.5834754131425165
    0.5946601799651060    0.4148812854184731    0.5800529587021688
    0.3666516457046779    0.5132898859209063    0.5785139002711606
    0.6184286500913347    0.5125638401421714    0.5731335106301787
    0.5053836969179976    0.3816953686314307    0.5570233975262325
    0.4127790265280355    0.5980021094775473    0.5561688253105778
    0.5717005811766344    0.5982419616481155    0.5514354172511289
    0.4182276604118128    0.3655678884475793    0.5199884652713909
    0.4923196384837101    0.6404219058858569    0.5109910683832953
    0.5819804715410563    0.3648076022268449    0.5010426778010970
    0.3675674270454202    0.4481403692129440    0.5089268602665484
    0.6215300251170178    0.4552591850309533    0.4947872702855088
    0.3606744427094709    0.5484003318885657    0.4902097450559195
    0.6344035154307902    0.5542429016858788    0.4927038942236101
    0.4053223864251426    0.6337154906064164    0.4697114010623398
    0.4952516104483676    0.3619673770959398    0.4627159619374194
    0.5709581014190788    0.6245952413642090    0.4597200526754081
    0.4112214424870161    0.4035122612746480    0.4328680181657364
    0.5708714596062661    0.4151513256424628    0.4218289536696852
    0.3519103514595887    0.4809309494979031    0.4219044721950405
    0.4843102016763208    0.6218587562949387    0.4179093412638216
    0.6132599377282805    0.5031776139957874    0.4116593631226433
    0.3998004591935154    0.5649941969615543    0.4026547479641849
    0.6501045919731412    0.5963144962403998    0.4111129283210836
    0.4877628607043409    0.3973056219071239    0.3761083821425149
    0.5616087054077278    0.5797989981645338    0.3742812104683054
    0.4306601650456059    0.4764168477236775    0.3675548048333045
    0.5324820376433972    0.4837540164344605    0.3632185752349651
    0.4737119907124175    0.5603255323647097    0.3446744738010444
