Au35 rank 17
1.0
   28.1844487510883752    0.0000000000000000    0.0000000000000000
    0.0000000000000000   28.2636116848619210    0.0000000000000000
    0.0000000000000000    0.0000000000000000   27.8743336261400643
  Au
  35
Direct
    0.5689857445516483    0.4364184176359972    0.6406440668577318
    0.5022370255560323    0.5073801524946301    0.6384104310433047
    0.6003393575738367    0.5265452668643431    0.6356806330288507
    0.6290042659264469    0.6181567462252404    0.6311242786694882
    0.4117171784539438    0.4804229569378651    0.6133970095298523
    0.4815455108016168    0.4146164417358161    0.6042930247274768
    0.5331927231507267    0.5974035132092572    0.6148447001861480
    0.4442262339028305    0.5703099681883869    0.5909398286796521
    0.5658672827355727    0.3865151780024517    0.5570660130651571
    0.6305065768182796    0.4621333150862270    0.5673430437495273
    0.6458664243167699    0.5573974320073373    0.5539027206757887
    0.4781712343876084    0.3542053905139704    0.5282481754633030
    0.4141275388161493    0.4272540638439626    0.5309693444247263
    0.5887231379544299    0.6380487452432035    0.5437255247305571
    0.3831290118615290    0.5197565189685771    0.5285988812002306
    0.4910475446338111    0.6359887944511015    0.5321194558495091
    0.3982927426151174    0.6153040615697590    0.5178569380432538
    0.6336819359231018    0.4045652250998742    0.4885974936550562
    0.5461071167967178    0.3738796564614221    0.4600674958633716
    0.6441625004452912    0.4997100622975100    0.4747849223616525
    0.4500757410848547    0.3953317273216019    0.4439834982326972
    0.6348622851737777    0.5965189199593717    0.4660076917229140
    0.3816881806509793    0.4644433236318780    0.4467731863932663
    0.5499007750738034    0.6465116906829766    0.4549194969520866
    0.3742993034528921    0.5624282283597605    0.4395349240707181
    0.4568103574509882    0.6189322012807755    0.4390098516733204
    0.6088019314005271    0.5379870565535956    0.3900309420749226
    0.5163345862729990    0.4001218064819973    0.3710606088684685
    0.5950833924964793    0.4447465513561547    0.4080709944750249
    0.6118051073548638    0.6353875472482655    0.3780019418654582
    0.5262367719142091    0.5923417958845858    0.3745642699590384
    0.4428420032944375    0.5490498594386505    0.3690056157612162
    0.5247427809820465    0.4959194873151508    0.3601169601502235
    0.3560202285831198    0.5068331171106588    0.3598901258253702
    0.4343495033456707    0.4499673504689300    0.3625693923488303
