Au35 rank 5
1.0
   28.2304146446138304    0.0000000000000000    0.0000000000000000
    0.0000000000000000   28.3770618186846804    0.0000000000000000
    0.0000000000000000    0.0000000000000000   28.0837306041862860
  Au
  35
Direct
    0.5209717143866504    0.5065031296717405    0.6526406378167208
    0.5920538551678161    0.4466546189366359    0.6110006021034534
    0.6058522875074119    0.5414550136336542    0.6207704341852908
    0.4310723471847727    0.4659962904530088    0.6269454491970133
    0.5086260660004484    0.4102655595009423    0.6464324408932558
    0.5272164976834546    0.5963098202039127    0.6055226921177392
    0.4422179620496834    0.5610911146255649    0.6369612681535451
    0.4467007997302102    0.3793216681976167    0.5767542444441432
    0.3829308760908736    0.5286472477088219    0.5660960514615269
    0.5470415911215309    0.3673183065228986    0.5668374751726649
    0.3677304833427614    0.4333363558520589    0.5600900104941886
    0.4409473759075124    0.6081184957843621    0.5520886287667031
    0.5058297198457135    0.4606443786103703    0.5540334724292854
    0.6018624882068184    0.5889905426112726    0.5362505439069464
    0.6407332194367732    0.4977438081080080    0.5403495227251798
    0.6317542182188474    0.4017696179639282    0.5336935827632920
    0.4847452878235571    0.3291872017542177    0.5024987014094540
    0.5251094945818353    0.6472990311950735    0.5218932757987328
    0.5116007848860074    0.5444116883977469    0.5100759958792751
    0.4115240971211251    0.3918936780242560    0.4838022289195890
    0.3778318734975211    0.5795619385809521    0.4831385170943913
    0.3727612224768242    0.4835177988441365    0.4771141897633952
    0.5655589431911300    0.3735302085591132    0.4684501584775392
    0.4948560788925563    0.4656879900653686    0.4585429565354835
    0.4630192696762725    0.6153910155219841    0.4527446140891649
    0.6417133180820142    0.5479398779406788    0.4569471205964239
    0.6232960176135742    0.4534998357603258    0.4519959632530192
    0.5633274525116384    0.6033874654343937    0.4427480044749493
    0.4815273988155020    0.3751422269616718    0.4149043726175765
    0.4216988845457455    0.5367581672792888    0.4077036854466391
    0.4113171240262166    0.4404244729214722    0.3985618193369442
    0.5754840954156221    0.5184153172338941    0.3923222070086217
    0.5605374702120307    0.4229088603554618    0.3842331621458482
    0.5020029253331135    0.5797862884346648    0.3708015652650161
    0.4889949054512007    0.4831884118372127    0.3579793111040199
