Au35 rank 8
1.0
   28.2784212522462610    0.0000000000000000    0.0000000000000000
    0.0000000000000000   28.7665566531558241    0.0000000000000000
    0.0000000000000000    0.0000000000000000   27.8971571964659546
  Au
  35
Direct
    0.5318057271099111    0.4958493711119381    0.6415759586565514
    0.4513776708499909    0.4394958162356818    0.6389046543013028
    0.5382309797413400    0.3984291831078410    0.6258795366050253
    0.6100684569013259    0.5440641591879026    0.6117477730973526
    0.4422928438502789    0.5292440955866586    0.6088490701129785
    0.5224833578775695    0.5870890455287856    0.6075580252547330
    0.6079460808845470    0.4521821674040279    0.5875461735444898
    0.4320580486803847    0.6172357414574455    0.5748074186850477
    0.4638579202414170    0.3767652601460844    0.5621641911454385
    0.3978543930374736    0.4555015096314445    0.5596110225121804
    0.5052179303725511    0.4640169025922294    0.5468385448819125
    0.5932459582334253    0.6005438609655349    0.5350987180195811
    0.5114183902450857    0.6522990471591692    0.5333673073911287
    0.5630530893894649    0.3793034326372920    0.5329839592325956
    0.6451934684813645    0.5171885681266705    0.5233171404619363
    0.3923225031762473    0.5463564630770283    0.5234219858495265
    0.5040157957327296    0.5507765319796581    0.5112778645524418
    0.6454145183814074    0.4225842962007103    0.5030504520809271
    0.4014155779965065    0.3909888260163487    0.4878922698661188
    0.3528132337854969    0.4743439243351487    0.4749103268350751
    0.4402853479889805    0.6163746220080331    0.4727386794959796
    0.4935497013482340    0.3573214196737542    0.4694236196311998
    0.5201113818619850    0.4771966998831482    0.4523195652694616
    0.6322545037818843    0.5782378797627770    0.4482799229852200
    0.5449833240171403    0.6217298117839417    0.4471957911125100
    0.5788274112960792    0.3972234094438459    0.4363063297194885
    0.6275642437004965    0.4846868015057140    0.4306655547171424
    0.4088115593948807    0.5362983701523205    0.4248470852666967
    0.4200980228818558    0.3462700782831460    0.4034994721958534
    0.4089887814549454    0.4433458592445598    0.4016971448355263
    0.4768678485998692    0.5917852825118414    0.3851314731892084
    0.5644368247789734    0.5488975088071388    0.3842448021793506
    0.4952306444493139    0.4026180050864311    0.3816779918296521
    0.4785505628949139    0.4991534445204320    0.3621798745637354
    0.5689966426459402    0.4577733412254381    0.3578586637963030
