Au35 rank 2
1.0
   29.9923774738213602    0.0000000000000000    0.0000000000000000
    0.0000000000000000   28.7309018234975611    0.0000000000000000
    0.0000000000000000    0.0000000000000000   27.3630138867455628
  Au
  35
Direct
    0.4612901293982235    0.3482782036032586    0.6311538360561387
    0.4793369735770197    0.4433754874987853    0.6383208943666608
    0.4958998247598831    0.5361239994144017    0.6293879768714609
    0.4091018816177813    0.5050091118895987    0.6246187867989037
    0.4272156975160773    0.5982003833363324    0.6151247863306666
    0.3980942401258854    0.4106948348913275    0.6022464504303694
    0.5604052974465111    0.4720980730116695    0.6001152949729027
    0.5777325729647497    0.5659131195994438    0.5991401389800420
    0.5280864984151928    0.3849630078071178    0.5762977645561879
    0.5049671670409442    0.6118454180821858    0.5635949009332225
    0.4470113435160505    0.3628330171750307    0.5313827036045340
    0.3604991081225575    0.5620340284691980    0.5583082766105076
    0.3358322407326947    0.4721767085234015    0.5739622823856728
    0.6246386550821470    0.5108072632074496    0.5371072621584780
    0.5950769875540342    0.4196149581739368    0.5233645423074575
    0.4235542186687641    0.6259526645272134    0.5192582205214917
    0.3727885122927558    0.4144530842603402    0.5039865760529308
    0.5738562866891471    0.5858053188990316    0.5010669945696922
    0.5228637681996271    0.3788081576605619    0.4757845694659749
    0.6661905184747484    0.4527190494195079    0.4701158455642939
    0.3368815515242735    0.5032111998473495    0.4800758807155046
    0.5026470064300081    0.6387528476624132    0.4681907687445608
    0.4379299490867176    0.3917116467063205    0.4371393749908606
    0.3505792568056903    0.5958702875239791    0.4661734019812202
    0.4974527747996425    0.6513096518599073    0.3671097028413209
    0.3871348743771454    0.5353221267377553    0.3986497259542625
    0.5112965636666571    0.4006878504639901    0.3789554352040350
    0.5518782036008612    0.5839980658073801    0.4030138362316407
    0.5897936581731523    0.4242139934516868    0.4215794524285092
    0.6067521285539439    0.5185739387072527    0.4372998375883693
    0.3649712447091068    0.4431392582767503    0.4086995682983348
    0.4469205401664827    0.4673730699543616    0.3712416270870883
    0.4703262950025906    0.5584194336133115    0.3611795855113749
    0.4234664906967173    0.6232893531675044    0.4170687662775839
    0.5364684220282154    0.4925721960404697    0.3765925998017515
