Au35 rank 19
1.0
   27.7680951794500004    0.0000000000000000    0.0000000000000000
    0.0000000000000000   29.0752528968835620    0.0000000000000000
    0.0000000000000000    0.0000000000000000   27.6352923122777412
  Au
  35
Direct
    0.5231313301634791    0.5005261491390881    0.6380054058756643
    0.4333081685842757    0.5417503923650820    0.6385201243787373
    0.5299864916003483    0.4092475334110880    0.6171663967196762
    0.6020980299438337    0.5526157773088263    0.6176468386155498
    0.4406459593339157    0.4502835901768121    0.6108908630978579
    0.5127224976760614    0.5935205418545275    0.6112608025852282
    0.6025854664821387    0.4642601883677429    0.5835436346769074
    0.3801129682915141    0.5127935280470938    0.5596725151077039
    0.4238956914977989    0.5997027049494097    0.5598810881453672
    0.4699465942409998    0.3786335507127357    0.5448948829111477
    0.5721984902600091    0.3866525612196219    0.5318272426374321
    0.3822724720900904    0.4213055483257239    0.5333262100257609
    0.5897296504733694    0.6168210418459259    0.5455947074186176
    0.6470190174824725    0.5357380077949878    0.5322032128134607
    0.5000574719276834    0.6554277918559257    0.5339577770799747
    0.6347071064290098    0.4498386776974195    0.4906872139047843
    0.5103591238305847    0.5576235580046969    0.5151921042520020
    0.5425424530385289    0.4920279469450521    0.4548649813589501
    0.3584493788051559    0.5764614756849394    0.4896708170829310
    0.5108256472146747    0.3474584788172120    0.4623015374959935
    0.4686333545962523    0.4750104105671268    0.5150525004685146
    0.3773970109740862    0.4858330723730044    0.4599652368921307
    0.4340063826607166    0.4052142576327103    0.4482762913399791
    0.6407545636195859    0.6062911742681333    0.4629399917250400
    0.4444678607190789    0.6189899082848704    0.4602860422375769
    0.5455941967275614    0.6274470205234283    0.4487648447380235
    0.5997289051498499    0.3769445852489204    0.4360584551606709
    0.6723982508614228    0.5217346590709375    0.4363739244345212
    0.5910333566048228    0.5587757890725140    0.3915551873203364
    0.5186078342034814    0.4144586738991256    0.3911532910065033
    0.4922578814691782    0.5714797741154162    0.3872452300031628
    0.4464993043225912    0.4802913397950468    0.3872661039512043
    0.3956353769340131    0.5596002970067806    0.3992060801773059
    0.6122084164036304    0.4603261486928639    0.3904355909368489
    0.5331744033395049    0.4966348458660521    0.3427663389921414
