Au35 rank 4
1.0
   28.6981036720585614    0.0000000000000000    0.0000000000000000
    0.0000000000000000   29.2194763637340387    0.0000000000000000
    0.0000000000000000    0.0000000000000000   29.0157683669937221
  Au
  35
Direct
    0.4419186217976441    0.4722688814379165    0.6536930100040825
    0.4627945151948909    0.5617459993074102    0.6533924861182969
    0.4841123355665662    0.6522764584915922    0.6508424533920613
    0.5310888768319392    0.4962689537766025    0.6282351791306489
    0.5474380087855751    0.5888078175176459    0.6147937928814918
    0.4942861247738590    0.4072189909358386    0.6138889167508438
    0.5993662720291403    0.5244052435566605    0.5690847992308431
    0.3916979633603907    0.5273009338657314    0.5960898869934699
    0.4114383205577136    0.4348936110522036    0.5720003957915928
    0.4230544013736444    0.6171398537508686    0.5851916275858994
    0.5793928142106517    0.4335464681509753    0.5747917354668122
    0.5074727387075891    0.6563906313026890    0.5590912322761062
    0.4733544772825500    0.3796095832028424    0.5246464343665062
    0.5488908405923003    0.3426545422348270    0.5730984258082088
    0.5879470082138966    0.6118909708179245    0.5324519038534247
    0.3476117117921147    0.4848326010826842    0.5231798971468433
    0.5644627238636292    0.3862725332411106    0.4914038910702161
    0.6516006025128468    0.5516404390200429    0.4952002309606959
    0.6128416147187185    0.4672824890300177    0.4920999869415520
    0.3745680884961800    0.5747187827992070    0.5165103672149443
    0.4365703408381987    0.6441689964642280    0.4951221519637024
    0.4106234195875065    0.4311550452138480    0.4759231033295794
    0.4867467360869366    0.3919489278807983    0.4331102810657482
    0.5286449995405144    0.6522770841436371    0.4679279017123389
    0.6121986066552769    0.6178421314523924    0.4396507349264869
    0.3783985690485994    0.6066377186864731    0.4282196556203031
    0.5709698865508412    0.4365205736983223    0.4126340929846927
    0.6006440748069400    0.5259815401368889    0.4171264165417670
    0.3808462367982401    0.5136051134279699    0.4402091165591056
    0.4603148939715950    0.6487290670066657    0.4024826212134988
    0.4390224358737593    0.4618143618469544    0.3882859606527645
    0.5349411844172184    0.5913754716475327    0.3915232088763312
    0.4458324992495769    0.5557807322975157    0.3833912199187587
    0.5236327011900702    0.5031812467619675    0.3642109887543279
    0.5079567429334558    0.4119677732405422    0.3438513476454471
