Au35 rank 3
1.0
   28.4096528220784812    0.0000000000000000    0.0000000000000000
    0.0000000000000000   28.0280566326836542    0.0000000000000000
    0.0000000000000000    0.0000000000000000   28.2904322748663652
  Au
  35
Direct
    0.4975887694798587    0.5974784674355879    0.5958729800250222
    0.4532208188550353    0.5207559908355572    0.6392394066767143
    0.5489333906284573    0.5169002949532289    0.6291498376631293
    0.3553887507104790    0.5213994581201901    0.6465802755329982
    0.5931337590559898    0.5897819545242620    0.5793257231312365
    0.4952913871800306    0.4325629844887888    0.6261226877619753
    0.3997457335347486    0.5854816959259413    0.5870655088231046
    0.6246316634735997    0.4984025687576055    0.5624680191897999
    0.3994260787648118    0.4399543263353098    0.6143704396087015
    0.5402117707080170    0.3564222164315582    0.5829225043271764
    0.5920922566208012    0.4294485916494619    0.6211172096269513
    0.4493057551341250    0.3741443661105917    0.5575818209033504
    0.3538656471177690    0.5064990277514498    0.5493681583663708
    0.5292786392099762    0.5267420303429708    0.5279780174796549
    0.4458988070986367    0.6439328385346926    0.5268716926044410
    0.3633994916716569    0.4105667362139154    0.5274689970190662
    0.6038224316043493    0.4046652326242269    0.5261965018302618
    0.4500035343784252    0.4751924010310534    0.5328458227124728
    0.5387365319755121    0.6281930870675694    0.5071607946142702
    0.5211770102616226    0.3630486140365320    0.4892202778208629
    0.6154455892580054    0.5647639519770866    0.4865734159195242
    0.3898521654787147    0.5737448084404737    0.4881884784921246
    0.6482779811647158    0.4723131947309734    0.4726874378990857
    0.4297693713543060    0.3921492433822217    0.4608171168676007
    0.5082863492087893    0.4684287079069749    0.4560447121981792
    0.3769123804611569    0.4786521619460554    0.4574713621873994
    0.4673788378165541    0.6116926017823741    0.4382879786767349
    0.5859749772820295    0.4109196632029006    0.4291333926435114
    0.5614762964382263    0.6046226647491753    0.4156896922443702
    0.5906689754878235    0.5116082114773592    0.4058640096103632
    0.4984147774898048    0.3742039425486190    0.3961928894277871
    0.4058999269935788    0.5480081307042340    0.3963083245480957
    0.4391588208315491    0.4561318491184579    0.3840345558343017
    0.4993093044164354    0.5413351661034314    0.3758847865151763
    0.5339438356655800    0.4530133738174137    0.3536259834917705
