Au35 rank 9
1.0
   28.2157185356048714    0.0000000000000000    0.0000000000000000
    0.0000000000000000   28.7386226812810079    0.0000000000000000
    0.0000000000000000    0.0000000000000000   28.2767309589708304
  Au
  35
Direct
    0.5558420465541825    0.5311145038015405    0.6356817596123083
    0.5866375276370090    0.4409792811142829    0.6295486867152349
    0.4612178693684826    0.5502599105703073    0.6457950358832178
    0.4898937634131067    0.4578432701885347    0.6364840077670888
    0.6149606517387046    0.5982137202881037    0.6014276749860790
    0.6300384373552127    0.5060663652954719    0.5727865368507442
    0.5150411739411739    0.6130732139228534    0.5958029297918760
    0.5271721370373769    0.3860865751729765    0.5768142437149903
    0.6159173633376477    0.4148448846065725    0.5414957947426086
    0.4040155242247437    0.4918290493409347    0.5952288862537891
    0.4306094294002293    0.3993443338420709    0.5835198947514032
    0.4268013280803051    0.5840791641696101    0.5612604910511136
    0.3557695019292527    0.5316377596271413    0.5228699504596246
    0.5440900955409702    0.5467459329302521    0.5265344777545119
    0.4854216756604451    0.4726165732073001    0.5363624902510328
    0.3904449386308907    0.4423650336782447    0.5057891381909440
    0.5788822048959911    0.6550866675487655    0.5333787469357107
    0.4679461507826963    0.3820552473144988    0.4933388261059199
    0.6379720123378302    0.5785873145715521    0.5072962254015234
    0.4873567512804109    0.6319419156368618    0.5028905045134564
    0.5588825974860949    0.3471273402687453    0.4949371635652627
    0.6239455207896357    0.3984988164043847    0.4462005237512134
    0.6450027273774718    0.4853886587606533    0.4792203121725470
    0.4100948687771011    0.5849771971924301    0.4634555721729787
    0.3664952237088204    0.5011273990835192    0.4321020891664923
    0.5182974383930848    0.4940813311844630    0.4512965086156087
    0.5684970663893130    0.6174360494052664    0.4454459665411040
    0.4387139278007720    0.4377921901461223    0.4192657283638312
    0.5295536359628952    0.3977242875671135    0.4171021794272012
    0.6344291726272847    0.5551068473180364    0.4130298325965978
    0.4796109369299084    0.6199731393911174    0.4066495403255525
    0.5968692142304710    0.4703725397804642    0.3902327938065712
    0.4450233796286102    0.5329938194957335    0.3863756669917180
    0.5435745502480879    0.5536828007694377    0.3742393797946438
    0.5060460351474295    0.4659748874483261    0.3522676933175706
