Au35 rank 15
1.0
   28.7511515068436054    0.0000000000000000    0.0000000000000000
    0.0000000000000000   28.4245335608792971    0.0000000000000000
    0.0000000000000000    0.0000000000000000   28.0039276185309092
  Au
  35
Direct
    0.4485601797339892    0.4750013717714024    0.6429830851785832
    0.5191159648953363    0.5397262084881272    0.6284290810215979
    0.4251825989502613    0.5639332454093148    0.6070475591767942
    0.5273988545407864    0.4325749586743539    0.6066913710644153
    0.4988483936561325    0.6150830209746317    0.5696287240846077
    0.4402719151045407    0.4033053377270095    0.5754362952677562
    0.6005062898706284    0.4916979757661550    0.6176821328555444
    0.3770670384572111    0.4816052308167981    0.5770208641990293
    0.5884406700338177    0.5768193226196685    0.5703034526730140
    0.3472166742056330    0.5678324192829771    0.5463798071390251
    0.4726762152856599    0.4986482835180239    0.5465419306968242
    0.4080871752340716    0.6408495098404583    0.5469798160277253
    0.6535615745046046    0.5097788324217857    0.5392577471447096
    0.6026116555417628    0.4269973857963754    0.5429707209091909
    0.5214511854890804    0.3740832427358065    0.5269800261673380
    0.3624705293300926    0.4092892758942210    0.5150943469130823
    0.5307643573752989    0.4657062556076740    0.4797287088830021
    0.5645679796247224    0.6440774865558915    0.5049043825790381
    0.4358553360652884    0.3528132150591148    0.4907777611392759
    0.3633314869962092    0.4985453210590048    0.4776267501801752
    0.4734600650225672    0.6456160667447609    0.4759834092411590
    0.4824281407813524    0.5451760687948263    0.4646328876686240
    0.6151737491071227    0.5689930304214867    0.4732382664116704
    0.3914009164033658    0.5902898631692430    0.4618523905554062
    0.5868696306565028    0.3855517315345257    0.4542714740100377
    0.6267370627295636    0.4732956243100584    0.4526303472875121
    0.4047050397543145    0.4240997313547982    0.4280294297525153
    0.4957222124876416    0.3840428099374772    0.4236352992026570
    0.5451954488983852    0.6080609516056468    0.4149516185086547
    0.4116398177444747    0.5174657518226715    0.3953109744854048
    0.4523542237630100    0.6061836397930447    0.3872641504882959
    0.5580561407545048    0.4486418907025819    0.3814974951667661
    0.6010070323956588    0.5354155212803396    0.3818891861197256
    0.5076023378357838    0.5321258841964536    0.3605328562555136
    0.4647486499251700    0.4469439966293234    0.3566024808863307
