Au35 rank 16
1.0
   28.9854921090314690    0.0000000000000000    0.0000000000000000
    0.0000000000000000   28.2230948209170194    0.0000000000000000
    0.0000000000000000    0.0000000000000000   28.2147095850137219
  Au
  35
Direct
    0.4928649615011815    0.5159683547453772    0.6466949066871803
    0.5386786776971154    0.4320424304261689    0.6260405698743717
    0.4206851086786740    0.5298196293037050    0.5855917232664051
    0.5015118444453969    0.5843918213365122    0.5785295424420829
    0.5722604088861362    0.5178184479632237    0.5948623815204972
    0.4812208269208613    0.3523756547567021    0.6323173784319617
    0.4421789754772854    0.4396351729894065    0.6139352859276546
    0.5340541627182540    0.3659826240686169    0.5524818825491637
    0.6091465963664885    0.4290426245875260    0.5601034879276259
    0.4362451074900893    0.3653833046911522    0.5465566266129295
    0.3803093786271977    0.4488426787071089    0.5405479043656441
    0.6464765905266329    0.5198415999073811    0.5357838841816224
    0.3548326043539830    0.5409296771267188    0.5182380979317743
    0.5787612887364547    0.5841898367605732    0.5187889086842250
    0.4746896316833250    0.4493045541549153    0.5089140713752041
    0.5102089513100787    0.6489125947611544    0.5048830933095869
    0.5597816272340661    0.4813235207438056    0.4917320602028194
    0.4247869353791090    0.6052132818568293    0.5201865371086248
    0.5844425239800368    0.3810059628060513    0.4731420580081958
    0.4870187078224351    0.5395794091910812    0.4784955335166223
    0.4916908414143080    0.3546154379003912    0.4652201879215394
    0.6541926491506456    0.4469550535987143    0.4721425000723729
    0.4032472598844725    0.3947716547481474    0.4593973361286569
    0.3464078392937173    0.4712354682166477    0.4503832550305038
    0.6224501618414948    0.5376837200017712    0.4397210801813473
    0.3962012285239852    0.5525725283368439    0.4314125311791489
    0.5494553682382423    0.6010806577546330    0.4250302896427729
    0.4569969855038849    0.6258989553252645    0.4277631873028585
    0.5963321656278225    0.4485957177785520    0.3957101886826163
    0.5456118711079276    0.3685617681042695    0.3851174595769838
    0.4180376514664447    0.4679005324678979    0.3863428366645406
    0.4520967022025218    0.3784199919334759    0.3783022274491359
    0.4751925372814425    0.5457151146338209    0.3746761670512799
    0.5080679438976871    0.4552607026072798    0.3545367326146324
    0.5668591838715480    0.5321956298189656    0.3592411939300268
