Au35 rank 10
1.0
   27.6504576154026083    0.0000000000000000    0.0000000000000000
    0.0000000000000000   27.8267225356789005    0.0000000000000000
    0.0000000000000000    0.0000000000000000   26.4215075583062458
  Au
  35
Direct
    0.4641213221685371    0.4246943939755967    0.6335946010485818
    0.4814257479741149    0.5165665533407517    0.6678572969418043
    0.4599414786942786    0.3403375517200111    0.5752988931582670
    0.5614313146090104    0.4662994625766284    0.6335821874327511
    0.3973870561736434    0.5014586161220836    0.6102964567266412
    0.5536206541529062    0.5658328757240735    0.6156605753357682
    0.4544586757756851    0.5909492971421078    0.6059450657894538
    0.5470100341989080    0.3731825022284734    0.6082787625903990
    0.6323320562804505    0.5149171411732250    0.5806374771688795
    0.3678780185113027    0.5817557047625236    0.5573839736153905
    0.3937252541240442    0.4134033215870582    0.5608620522293503
    0.6060653112483142    0.4252510154477591    0.5466474034860185
    0.4887590819850576    0.4971158051395985    0.5601013528855143
    0.5355605350862779    0.3619214386509548    0.5048581186364561
    0.4394142503080657    0.6336948129258756    0.5116951386268805
    0.5972876065136284    0.5880975808639686    0.5208404640831813
    0.5259896408577339    0.6458179988367846    0.5612806270790652
    0.3527209583932528    0.4951085173922261    0.5137518331613686
    0.4402590115233702    0.3584434032554391    0.4763003696782347
    0.5285049447591169    0.6324181944366180    0.4577247115576236
    0.3753180179456246    0.5754779000695065    0.4536982627878602
    0.4480477184838975    0.4621667424291315    0.4741062141847907
    0.4426919137610794    0.6354382009716402    0.4086214409766998
    0.5201496105399533    0.5284164824156260    0.4713247441527427
    0.6253918200059240    0.4986475738756834    0.4776817868689326
    0.6018553251351363    0.4087034927501500    0.4448265123310529
    0.3524715441768387    0.4067370062340734    0.4673295484503662
    0.5992041768966855    0.5737629310578787    0.4165185255836227
    0.4097812396629104    0.5600769504135549    0.3528249050379190
    0.5104476168430924    0.3993743464124023    0.4095967628678576
    0.3692307120891201    0.4875429759933914    0.4072153509605557
    0.5093451243728923    0.5691282985049748    0.3717036826824347
    0.4139767921150057    0.4004618951808238    0.3843743674322173
    0.5654169375628928    0.4828004852301834    0.3868519746394143
    0.4678922935358167    0.4796926595070066    0.3616349919871488
