Au35 rank 12
1.0
   27.8601309445437941    0.0000000000000000    0.0000000000000000
    0.0000000000000000   27.8779818468144036    0.0000000000000000
    0.0000000000000000    0.0000000000000000   28.4702507084343530
  Au
  35
Direct
    0.5144943426119682    0.5161541585108755    0.6501808819403961
    0.3654378920497540    0.4747021872028123    0.5853641453496990
    0.4520813704828240    0.4454205372173568    0.6209009187712421
    0.4269432397673602    0.5458093407191629    0.6144692454029762
    0.5533730134017278    0.4378720907293395    0.6047685001695524
    0.5158130320968861    0.5997440465253095    0.5979082653790140
    0.5928923437920819    0.5312884563397211    0.5907710250047942
    0.4088890680300389    0.3978367026855666    0.5427644467824009
    0.4924945956175542    0.3643354142182933    0.5820688427454787
    0.5000164464191086    0.5116247249267626    0.5481452067204322
    0.3692900845315771    0.5567135034848644    0.5324814363244729
    0.4277333671661567    0.6290234703123465    0.5644238545010085
    0.5709564588370253    0.3809940489978155    0.5254373183041385
    0.6326397640383901    0.4527467200775764    0.5487960852525980
    0.5947633085811220    0.6138549085828675    0.5397399820692522
    0.6218800015599123    0.5316662896504891    0.4932663993043953
    0.4162664584015916    0.6187066601230379    0.4696115247969343
    0.4811847472640691    0.3549499003645956    0.4864595336614807
    0.5069531542777064    0.6429233383534885    0.5091649995728458
    0.5092294965773433    0.5409367742650139    0.4573912504894491
    0.4655191060559034    0.4578310495757413    0.4788498494629090
    0.6162672021016171    0.4386744669861415    0.4552651370413204
    0.5811770799567387    0.6095540563478624    0.4444923461345491
    0.5620443408248851    0.3592499049338100    0.4326259196471069
    0.3585071390727265    0.4671694393023690    0.4888183214199271
    0.3973326269304214    0.3876641010830719    0.4456589324833377
    0.3574909348178225    0.5484577861263394    0.4361793274713223
    0.5952915012753835    0.5170903165448478    0.4012201010979567
    0.4914380900334490    0.6486420549837187    0.4153983791558718
    0.4807666133805021    0.4007198578664763    0.3944469228641871
    0.5356471863629030    0.5818971348737411    0.3600084208602760
    0.5744860637886809    0.4280099514985411    0.3648713477039719
    0.4072212176827314    0.4731520421552658    0.3964186021878925
    0.4990417672040547    0.4912747063951423    0.3616419826158284
    0.4385221297888343    0.5680657998582256    0.3853499951337218
