Au35 rank 11
1.0
   28.1530099547847641    0.0000000000000000    0.0000000000000000
    0.0000000000000000   28.4977470241841147    0.0000000000000000
    0.0000000000000000    0.0000000000000000   28.6587174844790127
  Au
  35
Direct
    0.5479368087772239    0.4829679018139028    0.6510233202483720
    0.4578220023512173    0.5159624374410555    0.6358162098585908
    0.4779325293672309    0.4215358303396846    0.6198660002461924
    0.5389007001680376    0.5727401282929754    0.6160930281491624
    0.4441769913152501    0.6082009438570709    0.6143179413178059
    0.3860074401377770    0.4564678120823847    0.6111701113506277
    0.5708267276844992    0.4163059703361388    0.5864567498069468
    0.6043502807054262    0.5106186209647753    0.5770694955772726
    0.3884110284700816    0.5432908692971257    0.5683569738763199
    0.5128881921740612    0.6502228343726243    0.5619441124739758
    0.5054493831969173    0.3507334082605563    0.5587028921383009
    0.4180761454160601    0.3910438022545868    0.5485522624989194
    0.4889337883953018    0.5438767303439589    0.5338186935866681
    0.5836956220727858    0.5917040940329706    0.5293875446146730
    0.6462668902942291    0.4367312234959447    0.5303963156291008
    0.4259953772816712    0.6215703447586085    0.5193988305532455
    0.3557767620404356    0.4646235252548329    0.5199764947222011
    0.5450838434812200    0.4757162985327084    0.4972039914688199
    0.5723598695814159    0.3788045869819507    0.4941293366596426
    0.6345719711395483    0.5217190238612697    0.4831478850009230
    0.4498068476141616    0.4736610128519802    0.4825504511505207
    0.3770830907528575    0.5500751364626186    0.4733949816108882
    0.5129906576683413    0.6300833187494285    0.4689262020913413
    0.4767471967724166    0.3727702815359840    0.4691889834800672
    0.3801797629964986    0.3874131142617112    0.4610779416614711
    0.6305942169147298    0.4332574252056703    0.4366063076576871
    0.5961721490536878    0.5957206086460286    0.4338562701329317
    0.4287140080016558    0.6153735759539826    0.4233864473742616
    0.3539001491894411    0.4709416278147617    0.4227160977722059
    0.5377186689389577    0.4183220003328965    0.4096999038678010
    0.5830631386416423    0.5073312086471619    0.3985834332556962
    0.4402828569438567    0.4272036195608905    0.3942800437318006
    0.4249445180432434    0.5261658473881117    0.3887010977892989
    0.5112033055290214    0.5740337426107306    0.3891969915901468
    0.5033437559400495    0.4855124996609037    0.3489060237404690
