Au
 1.0000000000000000
    29.4218528530000007    0.0000000000000000    0.0000000000000000
     0.0000000000000000   28.7863090749999984    0.0000000000000000
     0.0000000000000000    0.0000000000000000   30.7636447639999986
 Au 
  35
Cartesian
 16.7230200000000018 15.1989800000000006 20.7591700000000010
 18.0573000000000015 13.9835200000000004 18.7170600000000000
 14.5078899999999997 15.8018800000000006 19.3074300000000001
 15.4535900000000002 13.1700499999999998 19.3143400000000014
 17.0229299999999988 16.5493699999999997 18.3304000000000009
 12.8912099999999992 13.7408500000000000 18.4235399999999991
 16.9944400000000009 11.6625099999999993 17.5655600000000014
 12.3076500000000006 16.4205100000000002 17.9306899999999985
 14.2492999999999999 11.4632000000000005 17.5664100000000012
 14.7142099999999996 17.6656000000000013 17.2768900000000016
 19.3685800000000015 12.7834900000000005 16.7057900000000004
 18.7635399999999990 15.4698700000000002 16.4556199999999997
 11.6606799999999993 11.8829300000000000 16.8187899999999999
 10.7466799999999996 14.4370399999999997 16.7393999999999998
 15.7451799999999995  9.9677699999999998 15.8054699999999997
 10.0040399999999998 17.1034800000000011 16.5880499999999991
 17.0704600000000006 17.5385300000000015 15.7948199999999996
 12.4352199999999993 18.0712399999999995 15.6809300000000000
 13.4033099999999994 11.0762900000000002 14.8821399999999997
 17.9567900000000016 11.3088400000000000 14.9090199999999999
 19.1059599999999996 13.7812500000000000 14.1899599999999992
 14.8853299999999997 18.8307800000000007 14.7963199999999997
 18.7720699999999994 16.4831700000000012 13.9065499999999993
 11.6213300000000004 13.1608900000000002 14.3893100000000000
 11.1980900000000005 15.9141100000000009 14.4111799999999999
 15.6425000000000001 11.0431699999999999 13.2812800000000006
 16.2224399999999989 17.1486400000000003 13.1160300000000003
 13.4407999999999994 17.0860799999999990 13.2454000000000001
 13.2656700000000001 12.1674500000000005 12.3911800000000003
 17.9870799999999988 12.1512399999999996 12.3232900000000001
 17.4095200000000006 14.8497599999999998 12.1717700000000004
 12.2779600000000002 14.7830800000000000 12.2491299999999992
 14.8332899999999999 15.5452999999999992 11.4093300000000006
 15.6755700000000004 12.8909300000000009 11.1780000000000008
 13.3287200000000006 13.6422799999999995 10.0181400000000007
