Au35 rank 14
1.0
   28.2671024782078533    0.0000000000000000    0.0000000000000000
    0.0000000000000000   28.4648176783507765    0.0000000000000000
    0.0000000000000000    0.0000000000000000   29.9556788054004315
  Au
  35
Direct
    0.5528931876284068    0.5267961953479723    0.6661964738364733
    0.4633502425442628    0.5028624733375910    0.6413342230070443
    0.5385201971943433    0.4384071243436369    0.6361939226465949
    0.4474002890306712    0.4084487818872941    0.6256980824477704
    0.5008872567909177    0.5911096029271702    0.6189639500610364
    0.6004281570310318    0.5887218557816767    0.6140053426268463
    0.6157843398049617    0.4928280872740747    0.6033126758959634
    0.4078625986118327    0.5675903617780917    0.6000569698661289
    0.3916522644898376    0.4738026522109192    0.5843822240697976
    0.6079464320718266    0.3992184260338131    0.5841997134006438
    0.5155633387016342    0.3731185121744524    0.5694021675741849
    0.6445289469113809    0.6495922272228857    0.5549119897501029
    0.5476738357165499    0.6437816555196441    0.5548609258855338
    0.4532940445181036    0.6402848499776662    0.5533961209464685
    0.4239333332979617    0.3921493111476759    0.5382304425705265
    0.3572306707290807    0.6338568803704600    0.5514680117983505
    0.6452522964529637    0.5536583696289542    0.5376232437285221
    0.3537643913276040    0.5401650304353007    0.5262262315098292
    0.6375829494905143    0.4606844642960908    0.5183665608262474
    0.3579429613010401    0.4487266015964904    0.5011259047463635
    0.5794551633440614    0.3834133728794895    0.4983838794573641
    0.4893218444514617    0.3514635662200063    0.4833475511532023
    0.6003029106495412    0.6174435370333783    0.4800241330044432
    0.4073588614174682    0.6051271134404334    0.4778735348933320
    0.5026157276696800    0.6293802728117792    0.4734688346018076
    0.4321953800552638    0.4216861521665791    0.4490808258738023
    0.3979924223181840    0.5142408027432335    0.4456953030678093
    0.6216998179300082    0.5277365459509307    0.4512921882168073
    0.6211197971525193    0.4334636644449986    0.4325305982213682
    0.5259465303592820    0.4135882196967084    0.4229164728867825
    0.4568953574368543    0.5794964903094123    0.4060031903668143
    0.5555366403691289    0.5837046593204144    0.4083154164883336
    0.5671550919897707    0.4905857419464543    0.3809613300524888
    0.5086482434702142    0.5512627770258489    0.3341313596609551
    0.4687973215865970    0.4832103824419282    0.3889661104925413
