Au35 rank 13
1.0
   27.8349833590137337    0.0000000000000000    0.0000000000000000
    0.0000000000000000   26.4832515882971080    0.0000000000000000
    0.0000000000000000    0.0000000000000000   28.0852015887412776
  Au
  35
Direct
    0.4753404336896018    0.4920603879526612    0.6699466859501375
    0.5722690070776283    0.4873488926810680    0.6586253599199463
    0.4268801035328303    0.4482578000443395    0.5946951933559704
    0.5150869594627359    0.4070453435436431    0.6230615494152314
    0.5282966010683283    0.5770268064005862    0.6289124765285616
    0.4313495899024202    0.5555204770579484    0.6067945778681766
    0.5600532744390618    0.3457984370877257    0.5578706571429627
    0.6100975453254899    0.4284676967954572    0.5892262611365797
    0.5194745702603732    0.4960043224171201    0.5636764073767416
    0.6147853270028045    0.5404506859006218    0.5865530916422463
    0.4736057973343588    0.6413195152530646    0.5726160115911529
    0.3555903117539757    0.5117387150913982    0.5615769277493444
    0.5663469186643844    0.6206030041197790    0.5459138247932886
    0.3865269746868857    0.4308438965106733    0.5062889229861057
    0.4064716279818107    0.5924972890482909    0.5169300876462725
    0.5331912524230780    0.3571537455197740    0.4649448172433616
    0.6213439932825960    0.3967604592418816    0.4959604713830091
    0.6718886267443671    0.4796827248133883    0.5314113959227851
    0.6421312368057013    0.5728919905434443    0.4961912771995816
    0.4895014064781376    0.6318355994780501    0.4769675703701475
    0.3563530287243749    0.5217894793144049    0.4650290274918757
    0.4652931109158319    0.3711537831770456    0.5418228491090624
    0.5475964268766044    0.5353487860709849    0.4769116995109828
    0.5845328342936892    0.6478473147742249    0.4531580226329158
    0.4364553037036922    0.3671199389259551    0.4469744180248361
    0.4856436347481408    0.4577744272304795    0.4819883628299770
    0.5967377221250262    0.3997634119717264    0.4009309377496061
    0.4320915334829986    0.5689875535878584    0.4230908058710565
    0.6392656416096258    0.4835408882748728    0.4405363564949652
    0.5247911763956021    0.5907686528204694    0.3921542367258066
    0.6255706255142732    0.5765053408538960    0.3967241633532788
    0.4110182449341721    0.4609368544312185    0.4098086825339027
    0.5001802379876389    0.4170851416844409    0.3863425973909570
    0.5670985217439896    0.4953809521144100    0.3742956259371548
    0.4731829277428735    0.5122067004811236    0.3519593757475314
