Au35 rank 20
1.0
   27.8858678313987696    0.0000000000000000    0.0000000000000000
    0.0000000000000000   28.2327387362778950    0.0000000000000000
    0.0000000000000000    0.0000000000000000   28.6506331364818294
  Au
  35
Direct
    0.4388162408342041    0.4651202393623554    0.6172383661803929
    0.5344134462107553    0.4414641412496104    0.6176883951025640
    0.5159618530718890    0.5279981284022961    0.6549762422859725
    0.5893213123389867    0.5254557297176199    0.5902683127780701
    0.4338909971858658    0.5640631497211662    0.6183213671521607
    0.5218746344425345    0.5976832049066844    0.5837696891377431
    0.4709581213649731    0.3862587391765285    0.5648441515535791
    0.5656274030788175    0.3611603616512153    0.5734580784261826
    0.6282971895518911    0.4368624856822392    0.5885296586737944
    0.6158577293110238    0.3996467450378006    0.5004242329175304
    0.4875824006056316    0.5104903895160595    0.5432389261989379
    0.6433865799343629    0.4955398367009555    0.5133329445918711
    0.3823186967777530    0.4231075663710667    0.5491893788256481
    0.4326408363853337    0.6042073385501537    0.5322687947347899
    0.3797378700851181    0.5197899141018343    0.5520452483962536
    0.5150331063753560    0.6450379803471873    0.5003565950481360
    0.5945969364648037    0.5879759504793636    0.5159976911026076
    0.5518221888128096    0.5066256379896646    0.4726530500076975
    0.5231198075232392    0.3542608105846489    0.4882242904112262
    0.4268877827853712    0.3775491174089608    0.4765455791097448
    0.5892062945675336    0.3612031353283277    0.4171918017932896
    0.6261114386148200    0.4549537535791344    0.4229187798411759
    0.6353842990869446    0.5524743375972204    0.4350377789859800
    0.3635929037481102    0.4715200767990058    0.4685931280099763
    0.3655252267183727    0.5700367375583186    0.4706143060454441
    0.4670335865944049    0.4673928632350494    0.4606322408097046
    0.4499852702154173    0.6080943891009752    0.4370565923936505
    0.5501335856957206    0.6014531903893197    0.4232508301664966
    0.4926902882272738    0.3842874797926465    0.4015584211586249
    0.5692725581525675    0.5206717918557060    0.3698776056271878
    0.4077331533392548    0.5255708294675943    0.3959896945507035
    0.5662027553194149    0.4259789903623426    0.3507338144382323
    0.4035928364338992    0.4262540624248332    0.3934971403726952
    0.4855330448799235    0.5703595996109823    0.3561036823156236
    0.4810692132210682    0.4726787485187228    0.3542063563266827
