Au35 rank 18
1.0
   28.6728097730779865    0.0000000000000000    0.0000000000000000
    0.0000000000000000   28.1328335163687200    0.0000000000000000
    0.0000000000000000    0.0000000000000000   28.1880358606646979
  Au
  35
Direct
    0.4714320567176017    0.4927909796277808    0.6438932046827822
    0.4879292711684795    0.5806412526552551    0.6026738957879856
    0.5599202787001842    0.5131445036151462    0.6118898247639155
    0.5186216865565807    0.4186284498641428    0.6021193548013490
    0.4035015493627969    0.5311759642051398    0.5870457828762251
    0.4221106359640602    0.4315862238880263    0.5869696647053948
    0.6085620788252548    0.4358870640129223    0.5743413100068258
    0.5745216536921154    0.6007068991219074    0.5695369824040148
    0.4199676772069639    0.6214032251876086    0.5479885110208547
    0.4682055025831116    0.3554650976695805    0.5480377680483116
    0.6247963890846725    0.5254724176856920    0.5364012554721297
    0.3487320112467652    0.4684783749488059    0.5368376598537274
    0.5567601178660023    0.3756342335906350    0.5159753919606571
    0.5349232462861161    0.4771010198359913    0.5179834253597816
    0.5083957410294494    0.6372387439892028    0.5092674558656728
    0.3667283556077316    0.5566031883953647    0.4980866457400084
    0.4002148871201910    0.3978466916377736    0.4941115063078529
    0.6227695594114928    0.4404188998204851    0.4770244067601039
    0.5921026630836185    0.6000437952800795    0.4745146688728636
    0.4707859926271490    0.5452636578114431    0.5051498979375507
    0.4684155937802735    0.4678570430333640    0.4517132408495951
    0.4828926509858896    0.3637432235164756    0.4512247157830013
    0.4287744558790454    0.6212173913894791    0.4499987213306884
    0.6492584145279341    0.5266696530886698    0.4434256331373450
    0.3646358890664343    0.4741123254004769    0.4404714358169802
    0.5695308472892142    0.3851038299584059    0.4190161167781980
    0.5170233950479041    0.6141196338076667    0.4136004003360859
    0.3675073673614303    0.5629512626684348    0.4013458483877949
    0.4147885264315748    0.4032428739062275    0.3957270492257607
    0.5892851486051851    0.4741318470517216    0.3865496190277929
    0.5956891053694987    0.5733474591957322    0.3787964313751148
    0.5035404227165937    0.4315688871670695    0.3659333166114516
    0.4436423664496599    0.5946717289754283    0.3534609041267223
    0.5150929861881786    0.5291619070754627    0.3543645446096395
    0.4258854230942576    0.4952543456651101    0.3620929724626482
