Au
 1.0000000000000000
    28.7790601539999997    0.0000000000000000    0.0000000000000000
     0.0000000000000000   28.4575850629999998    0.0000000000000000
     0.0000000000000000    0.0000000000000000   27.8809775040000005
 Au 
  35
Cartesian
 17.0053400000000003 16.1753199999999993 17.3921300000000016
 12.7097899999999999 14.2810000000000006 17.9304699999999997
 15.4171399999999998 13.9953699999999994 17.8971899999999984
 14.2708600000000008 16.4999399999999987 17.3963399999999986
 17.7913800000000002 13.7700499999999995 16.3187999999999995
 16.4189700000000016 11.5579000000000001 17.1531500000000001
 13.6204699999999992 11.8787500000000001 16.9092599999999997
 15.9263999999999992 17.8937099999999987 15.5393600000000003
 11.8181200000000004 16.0650300000000001 16.0575100000000006
 13.2487499999999994 18.3947099999999999 15.7084399999999995
 18.1179500000000004 16.1616900000000001 14.8670500000000008
 11.5256900000000009 13.2774500000000000 15.6847799999999999
 15.4668799999999997 15.6061800000000002 13.7859099999999994
 15.1976399999999998 13.2053600000000007 14.9419500000000003
 15.1441400000000002 10.0713299999999997 15.2792300000000001
 19.0244600000000013 13.7248900000000003 13.8809799999999992
 12.9142700000000001 11.2365600000000008 14.2474699999999999
 17.4557700000000011 11.5407299999999999 14.4913600000000002
 10.4360199999999992 15.1091499999999996 13.8757400000000004
 17.0437699999999985 17.9332999999999991 12.9975400000000008
 11.6003500000000006 17.6337100000000007 13.7082499999999996
 10.7389700000000001 12.4443199999999994 13.1590299999999996
 15.3015699999999999 11.0093899999999998 12.7218699999999991
 10.0042600000000004 16.7215099999999985 11.6487800000000004
 14.2979299999999991 18.1903000000000006 13.1557099999999991
 13.1788799999999995 14.2655700000000003 13.4236000000000004
 12.9566999999999997 12.0511900000000001 11.5308399999999995
 17.4559600000000010 12.6480300000000003 11.9170400000000001
 17.9281199999999998 15.4815100000000001 12.1046999999999993
 11.3297600000000003 14.3429000000000002 11.2053899999999995
 15.4939999999999998 16.6809300000000000 11.0590499999999992
 12.7712699999999995 16.7688300000000012 11.3252500000000005
 15.3458600000000001 12.0666100000000007 10.2248699999999992
 13.9341699999999999 14.4520300000000006 10.3362900000000000
 16.6596900000000012 14.4591999999999992  9.9378899999999994
