Au
 1.0000000000000000
    28.1448562319999986    0.0000000000000000    0.0000000000000000
     0.0000000000000000   28.2305812789999990    0.0000000000000000
     0.0000000000000000    0.0000000000000000   26.4307649920000003
 Au 
  35
Cartesian
 12.7341200000000008 13.8576599999999992 16.9519300000000008
 15.3641400000000008 14.7216799999999992 17.1672200000000004
 12.3807299999999998 11.1557999999999993 16.4490799999999986
 17.2845900000000015 12.9210600000000007 18.0852100000000000
 14.7990200000000005 11.9896799999999999 17.3229299999999995
 13.5312900000000003 16.4701799999999992 16.1347300000000011
 16.1950299999999991 16.5300200000000004 15.2325700000000008
 10.9368300000000005 15.5588599999999992 15.7270500000000002
 17.8119300000000003 14.3846000000000007 15.8089399999999998
 14.5864499999999992 10.4399599999999992 14.9625900000000005
 10.7724299999999999 12.8673500000000001 15.0575799999999997
 14.3593200000000003 18.3755899999999990 14.3320900000000009
 16.5074000000000005 10.9995499999999993 12.9654900000000008
 16.9913500000000006 11.5915199999999992 15.6547300000000007
 13.0756700000000006 14.3936700000000002 14.1180099999999999
 12.0253999999999994 10.6438400000000009 13.7857800000000008
 18.5400600000000004 12.7531300000000005 13.6680200000000003
 17.7801699999999983 15.3781499999999998 13.1605000000000008
 12.0084099999999996 17.1588199999999986 13.7568099999999998
 15.6380900000000000 13.6164600000000000 14.0703200000000006
 16.5436699999999988 17.7763600000000004 12.7809500000000007
 10.4032199999999992 14.9054000000000002 13.0683500000000006
 10.2105999999999995 12.2231400000000008 12.4464100000000002
 14.1532400000000003 13.6664200000000005 11.7748600000000003
 16.1809100000000008 15.8729600000000008 10.8813899999999997
 17.1981900000000003 13.2635000000000005 11.3619599999999998
 14.1949100000000001  9.6793499999999995 12.3654600000000006
 11.4013100000000005 13.9058399999999995 10.6300799999999995
 12.3886199999999995 11.2597500000000004 11.0807400000000005
 11.4936699999999998 16.5870399999999982 11.1404599999999991
 13.6146399999999996 15.5491600000000005  9.7185000000000006
 15.2761899999999997 11.3873099999999994 10.4797399999999996
 14.0121599999999997 17.4814800000000012 11.7065999999999999
 15.8110499999999998 13.8437000000000001  9.0955899999999996
 13.3116400000000006 12.7988300000000006  9.0167999999999999
