Au35 rank 1
1.0
   31.2612038586846737    0.0000000000000000    0.0000000000000000
    0.0000000000000000   29.5684012179010338    0.0000000000000000
    0.0000000000000000    0.0000000000000000   28.6897597756557374
  Au
  35
Direct
    0.4879905125099258    0.4343332441590509    0.6518590412693015
    0.4952780638585528    0.5266382884711487    0.6469162230928700
    0.5737258023164458    0.5631595321951665    0.6308176439011005
    0.5651556791761994    0.4703424201383992    0.6240409855986433
    0.4256795819218920    0.5759474138196481    0.6213797311304358
    0.4208104850748363    0.4827716777719218    0.6146917374438036
    0.5042946188608275    0.6034317964307822    0.5894334626253122
    0.6276518472748972    0.5174851030116784    0.5747900288499210
    0.5341659687962381    0.3925329313337216    0.5830611800208941
    0.4439308404378955    0.4003362371540060    0.5771771552438928
    0.6098854593466665    0.4273366889160015    0.5528194822013346
    0.5803819823890494    0.5914059030923223    0.5400335684304902
    0.3782585874304883    0.4472554368689936    0.5378353718806598
    0.3720156386888631    0.5394835832580072    0.5583234702662379
    0.4331445159701455    0.6041938663508710    0.5306020722990471
    0.6809271136379055    0.4725217159921261    0.5156699212627771
    0.4874864029802478    0.3380939120400603    0.5261437146167682
    0.5116683092095896    0.6381803687859559    0.5024449626202950
    0.6275933846801023    0.5369740584063680    0.4792103446693436
    0.5594099520636614    0.3807347213015678    0.4902633937139655
    0.4273599127143126    0.3920694170722577    0.4817240180089116
    0.3194122481830531    0.5035604705381985    0.4923930785733372
    0.4937714353354348    0.3528698000678227    0.4316019402412186
    0.3853833783945629    0.5576835715088904    0.4636081205771167
    0.6154346103477634    0.4453626624382740    0.4576453266117193
    0.3857036570597297    0.4650625953163933    0.4427918655528142
    0.4513771514619556    0.6087973656294977    0.4366087023651367
    0.5185845037940729    0.6632770673145472    0.4103066554188280
    0.5734368782411664    0.5983132381177310    0.4444753490226704
    0.5459310104021349    0.4235130839831127    0.4054692570924369
    0.4560696834892348    0.4311576037106232    0.3995855751142067
    0.4399149387875412    0.5240869410508899    0.3961811142953908
    0.5137103354001453    0.5748168054332341    0.3771081144375427
    0.5763825176293292    0.5123974162231221    0.4049000238951886
    0.5084636010609974    0.4870570057075584    0.3500076892457346
