Au35 rank 7
1.0
   28.4745353852862806    0.0000000000000000    0.0000000000000000
    0.0000000000000000   28.0055434046046514    0.0000000000000000
    0.0000000000000000    0.0000000000000000   28.1660944520621754
  Au
  35
Direct
    0.5326810384806909    0.5575363381271199    0.6451664494637240
    0.4883386944269172    0.4694429060365083    0.6399294716869476
    0.5851286138935177    0.4802530674973505    0.6152607704997658
    0.4409529071703041    0.5560419544109630    0.6130312926187640
    0.5417002037845268    0.3924242538231009    0.6131367306857440
    0.3956275880451951    0.4698388310336101    0.6129265717612187
    0.5079500768830828    0.6227164618630503    0.5752607571244386
    0.5973953745186072    0.5763964352299059    0.5746352471346604
    0.4500339002108074    0.3945667518957940    0.5831713001574358
    0.4152934615011700    0.6237875907755827    0.5479422015554162
    0.6505266458735467    0.4997452031233288    0.5463678005702305
    0.6041565659892787    0.4143173174040708    0.5415869634341165
    0.3739003374177572    0.5349124141173907    0.5428310046347342
    0.5168943493355296    0.5190245557819571    0.5501579323853866
    0.5230814830929604    0.3589783928349397    0.5231898326063961
    0.3799875054912430    0.4368527548795149    0.5227533378053196
    0.5738559676573524    0.6434387359524167    0.5072478409339067
    0.4920354033161391    0.5363224000456217    0.4598665274356037
    0.4305617225342899    0.3578378517126033    0.4937799992054332
    0.6233025926004302    0.5639106673600254    0.4784732122335214
    0.4816198973891068    0.6409620301717035    0.4792113571680129
    0.3520835198436256    0.4999002946331119    0.4539725537815536
    0.4807159372659932    0.4487154754069243    0.4967378794775912
    0.6290101066760448    0.4650211652560370    0.4583299386710896
    0.5878812138103083    0.3769646284192466    0.4533292918005915
    0.3989433436287255    0.5850572768937212    0.4602292662862434
    0.4067177818976477    0.4245012166794919    0.4249858123141487
    0.4959281921463137    0.3777345146394969    0.4241133532212125
    0.5547123249064182    0.6059259684184792    0.4189960171595653
    0.4186236175894775    0.5177428382284006    0.3856306873505456
    0.6074960882400823    0.5296713148274654    0.3889080148329675
    0.4623481492360614    0.6062320836369816    0.3890210439574467
    0.5618526658654417    0.4436779032498870    0.3873796350414570
    0.5153017480940810    0.5287634708942534    0.3605414401677910
    0.4708008820056592    0.4417033969950245    0.3543480105946235
