Au35 rank 6
1.0
   27.9510982361208349    0.0000000000000000    0.0000000000000000
    0.0000000000000000   27.5714908666458811    0.0000000000000000
    0.0000000000000000    0.0000000000000000   29.0668374793325697
  Au
  35
Direct
    0.4619377303599015    0.3704000488776669    0.6568791490869638
    0.5070032244986137    0.4592626512739988    0.6385648096723301
    0.4103462866320430    0.4437116011563147    0.6196742476761700
    0.5411787897996154    0.3710823225921223    0.6032811240315842
    0.4493578784287007    0.5378669577024480    0.6163214061827933
    0.5954913444886295    0.4571660833678367    0.5955490471924384
    0.5467953866160230    0.5435788913126023    0.6061975136370921
    0.3596388793373894    0.5175471060016492    0.5831261013521146
    0.4517614144907858    0.3744485256741626    0.5606216634053361
    0.6331812330330833    0.5420242053333701    0.5626123887415403
    0.6186160367291568    0.3741587702107745    0.5492845544035079
    0.4051555605140335    0.5977744501964047    0.5497273236389781
    0.4909657815836636    0.6232175306721032    0.5884371797038314
    0.5662868887236354    0.6050417315255017    0.5301323774348918
    0.3846255913361332    0.4390428886440687    0.5276338291851408
    0.3610041131118052    0.5307396146688174    0.4897332101399035
    0.5314284030522539    0.3599179057523663    0.5064925411059656
    0.6445085117555684    0.4609226731316367    0.5093897371536984
    0.4803393588610584    0.6375894903481688    0.4955880893723297
    0.4482750573821642    0.3941280913699911    0.4677677881248308
    0.6207459808789249    0.5501337992292218    0.4695684037717775
    0.6170134741274552    0.3791171437446082    0.4575782657775533
    0.3913104413706754    0.6188683825621563    0.4592209886485123
    0.3758657641939805    0.4512538614936582    0.4351902017640552
    0.5584500866812487    0.6225904923391465    0.4384453569527633
    0.5273267567761025    0.3843823836191900    0.4143272000547997
    0.6286286197402280    0.4691202769727700    0.4158481985405038
    0.4657889559471337    0.6234726971036370    0.4007558404497673
    0.4605682491692291    0.4533585966198993    0.3899890812009015
    0.5909103628215315    0.5508049144753303    0.3787141851624060
    0.4097067167443185    0.5390239677524216    0.4045490864144293
    0.6125028062911732    0.3851967205322123    0.3643554930533874
    0.5514161096046371    0.4612336264180948    0.3542714359886858
    0.4938931549542491    0.5404398527891812    0.3549286006598056
    0.5429837078176085    0.6283847340978673    0.3437162772171137
