Au
 1.0000000000000000
    29.6324927460000005    0.0000000000000000    0.0000000000000000
     0.0000000000000000   29.0014391549999999    0.0000000000000000
     0.0000000000000000    0.0000000000000000   27.8646307739999983
 Au 
  38
Cartesian
 14.2780799999999992 14.5521499999999993 17.5879200000000004
 12.4953099999999999 16.4454700000000003 16.5392399999999995
 19.6619300000000017 15.7424900000000001 17.8746100000000006
 11.6541499999999996 13.9392200000000006 17.3424000000000014
 16.9282199999999996 15.1222100000000008 17.7630499999999998
 15.1828099999999999 17.0106499999999983 16.7331399999999988
 18.8296700000000001 13.1140699999999999 17.4909600000000012
 16.1428499999999993 12.4562399999999993 17.2964699999999993
 13.4882299999999997 11.9526100000000000 16.7769000000000013
 14.7914600000000007 15.9760100000000005 13.9037199999999999
 18.0193200000000004 17.4220499999999987 16.5147399999999998
 11.0115300000000005 17.6481700000000004 14.5146099999999993
 10.5297199999999993 15.0173400000000008 15.0886700000000005
 16.2831699999999984 18.9387900000000009 15.1065699999999996
 18.7257600000000011 14.9533199999999997 15.3676999999999992
 11.1739800000000002 12.2638700000000007 15.2120099999999994
 17.7851700000000008 12.3231199999999994 15.0341500000000003
 15.4342600000000001 10.7269100000000002 15.1346299999999996
 12.7470099999999995 10.0500399999999992 14.8897200000000005
 15.1478699999999993 13.4990199999999998 14.8079300000000007
 12.8656699999999997 14.1313600000000008 13.4660799999999998
 17.5097300000000011 16.8764399999999988 13.7640100000000007
 13.5854800000000004 18.4212999999999987 14.8635300000000008
 14.3551300000000008  9.9679599999999997 12.6509599999999995
 12.0150799999999993 11.4539299999999997 12.5769800000000007
 10.0255799999999997 13.2954100000000004 12.9242200000000000
 17.6468899999999991 14.2289700000000003 12.9748999999999999
 10.6493000000000002 15.9103300000000001 12.4126999999999992
 15.3179099999999995 18.4165500000000009 12.5918200000000002
 14.2540200000000006 14.7985900000000008 10.0278500000000008
 16.4629399999999997 11.7206299999999999 12.6914999999999996
 12.5280400000000007 18.0520700000000005 12.2616099999999992
 14.1809499999999993 12.1981599999999997 11.0378699999999998
 16.3900700000000015 16.1118999999999986 11.3417399999999997
 11.8058200000000006 13.6774400000000007 10.8630200000000006
 16.5680000000000014 13.4695400000000003 10.5854099999999995
 14.3295499999999993 17.5696499999999993 10.2134599999999995
 11.9254200000000008 16.2923000000000009 10.0846699999999991
