Au
 1.0000000000000000
    28.5671478050000012    0.0000000000000000    0.0000000000000000
     0.0000000000000000   30.0132015410000008    0.0000000000000000
     0.0000000000000000    0.0000000000000000   28.8082433000000009
 Au 
  38
Cartesian
 14.4864599999999992 15.2869200000000003 18.8162300000000009
 16.5429999999999993 17.0110199999999985 18.2537100000000017
 18.6188000000000002 18.6662800000000004 17.6008899999999997
 13.7744499999999999 17.9223299999999988 18.1043400000000005
 12.1531900000000004 15.5957299999999996 17.3939899999999987
 15.9949800000000000 19.4611100000000015 17.0356099999999984
 16.6157600000000016 14.3257200000000005 17.2288199999999989
 13.8873800000000003 13.3982899999999994 16.9172499999999992
 11.4611000000000001 18.1764800000000015 16.4505400000000002
 18.3248399999999982 16.3397000000000006 16.1699100000000016
  9.9763400000000004 15.8679699999999997 15.7510899999999996
 13.4562299999999997 20.0082699999999996 16.3354900000000001
 14.8236799999999995 16.2281799999999983 16.1305900000000015
 16.0155999999999992 12.1979900000000008 15.6253499999999992
 11.6710200000000004 13.7444400000000009 15.2573799999999995
 12.6846200000000007 16.5309799999999996 14.3924400000000006
 17.9792999999999985 14.0535999999999994 14.8130199999999999
 17.7525200000000005 18.8036500000000011 14.9781899999999997
 13.4077900000000003 11.6840499999999992 14.7040400000000009
 14.5465099999999996 14.4267299999999992 14.0495800000000006
 10.1969899999999996 17.9267299999999992 13.9301600000000008
 15.4779499999999999  9.9496599999999997 13.9968500000000002
 12.5258599999999998 19.4501099999999987 13.8768100000000008
 17.5791000000000004 11.7103699999999993 13.4234700000000000
 18.0649000000000015 16.4565300000000008 13.3819400000000002
 15.2705900000000003 19.9376700000000007 14.3024900000000006
 10.5248100000000004 15.2161299999999997 13.0941299999999998
 15.2746399999999998 17.0858899999999991 13.6254500000000007
 12.3963400000000004 13.2332099999999997 12.5620100000000008
 14.9792799999999993 12.1342400000000001 12.4137900000000005
 16.9971700000000006 14.1560299999999994 12.2171800000000008
 17.0292099999999991 18.9109900000000017 12.3516499999999994
 11.8459699999999994 17.7491899999999987 11.7621500000000001
 14.3315699999999993 19.0387599999999999 11.7559500000000003
 14.5190699999999993 14.4358699999999995 11.0123499999999996
 16.3899800000000013 16.5810700000000004 11.0482999999999993
 11.8528400000000005 15.1773199999999999 10.7285799999999991
 13.8505400000000005 16.9316099999999992 10.0640000000000001
