Au
 1.0000000000000000
    30.0144047299999990    0.0000000000000000    0.0000000000000000
     0.0000000000000000   28.6680732489999990    0.0000000000000000
     0.0000000000000000    0.0000000000000000   29.2688608939999995
 Au 
  38
Cartesian
 17.4645699999999984 14.6154100000000007 18.5351199999999992
 15.9738799999999994 12.2908799999999996 18.2523200000000010
 18.5265899999999988 12.2394400000000001 19.3644399999999983
 14.8781599999999994 14.9404100000000000 17.6641599999999990
 16.8130799999999994 16.9816000000000003 17.2428500000000007
 19.5070200000000007 15.9619099999999996 17.1745500000000000
 13.5432799999999993 12.6134799999999991 17.0731600000000014
 12.3480399999999992 15.0171600000000005 16.4821400000000011
 15.3318499999999993 10.7837499999999995 15.9781300000000002
 18.0060199999999995 10.9015299999999993 16.9263000000000012
 14.2596500000000006 17.0950899999999990 16.0340899999999991
 17.1465400000000017 14.6511700000000005 15.6978700000000000
 19.5186600000000006 13.2013599999999993 16.9795300000000005
 18.6644100000000002 17.3232999999999997 14.9891799999999993
 19.8686199999999999 14.6853800000000003 14.6753099999999996
 16.3129099999999987 18.7357300000000002 15.2230200000000000
 10.0168099999999995 15.4011200000000006 15.1364699999999992
 13.1847399999999997 11.7153700000000001 14.5296199999999995
 19.2639299999999984 11.9854500000000002 14.4986200000000007
 16.5629300000000015 15.2098700000000004 13.0192499999999995
 14.4896499999999993 14.3912700000000005 14.7271599999999996
 11.7780799999999992 13.8991299999999995 13.6783199999999994
 12.2143200000000007 16.6508900000000004 14.1483899999999991
 17.4705599999999990  9.8824199999999998 14.4865499999999994
 17.2524499999999996 18.0495400000000004 12.6849200000000000
 16.5153700000000008 12.6412099999999992 13.9809300000000007
 15.1243099999999995 10.4029699999999998 13.0566099999999992
 19.1535599999999988 13.5455100000000002 12.2211200000000009
 14.5534599999999994 17.7331099999999999 13.3214900000000007
 19.4164500000000011 16.3209899999999983 12.5442199999999993
 13.5589700000000004 12.6008399999999998 11.9676399999999994
 17.8766399999999983 11.0473700000000008 12.0581999999999994
 13.5588499999999996 15.3739200000000000 12.0543300000000002
 15.5782900000000009 16.8256499999999996 10.8816299999999995
 15.5261600000000008 11.3696699999999993 10.5136900000000004
 17.9026400000000017 15.3930900000000008 10.4761500000000005
 15.3726299999999991 14.1041100000000004 10.4009199999999993
 17.8313999999999986 12.7161200000000001  9.8882800000000000
