Au
 1.0000000000000000
    31.7009169940000000    0.0000000000000000    0.0000000000000000
     0.0000000000000000   27.2383268359999988    0.0000000000000000
     0.0000000000000000    0.0000000000000000   30.2599528669999991
 Au 
  37
Cartesian
 15.9989899999999992 14.2810699999999997 20.2696299999999994
 14.2234499999999997 12.6104800000000008 19.0106900000000003
 16.4445000000000014 16.6722199999999994 18.9364500000000007
 16.9985800000000005 12.0772399999999998 18.9779200000000010
 14.0307099999999991 15.3550400000000007 18.6548100000000012
 18.1896200000000015 14.5546299999999995 18.6046300000000002
 15.1828000000000003 10.1660500000000003 18.2206100000000006
 11.9941800000000001 13.6630900000000004 17.8711100000000016
 19.4338400000000000 12.2295800000000003 17.7840799999999994
 13.0616199999999996 11.2494599999999991 16.8847400000000007
 17.5215500000000013 10.3909500000000001 16.8304299999999998
 17.8042400000000001 16.3998400000000011 16.5691099999999985
 15.0299399999999999 16.9324699999999986 16.6005000000000003
 19.8883399999999995 14.6613600000000002 16.4295800000000014
 12.4493299999999998 16.0950600000000001 16.5160599999999995
  9.9614700000000003 14.8856900000000003 16.4456200000000017
 21.7423499999999983 12.6077600000000007 16.3046800000000012
 15.1236400000000000 10.0421099999999992 15.4652100000000008
 11.0678199999999993 12.5262499999999992 15.5209200000000003
 19.8134100000000011 10.8397799999999993 15.4153300000000009
 12.8627000000000002 10.9479399999999991 14.1413100000000007
 16.4939399999999985 17.2086299999999994 14.2984899999999993
 18.4373100000000001 15.3007299999999997 14.0982099999999999
 11.5218600000000002 14.9621600000000008 14.1634799999999998
 13.9753900000000009 16.1644499999999987 14.1460899999999992
 17.5264899999999990 10.0540699999999994 14.0850500000000007
 20.2684899999999999 13.2743000000000002 14.0609500000000001
 15.1090499999999999 10.1434400000000000 12.7683199999999992
 11.1022900000000000 12.6306499999999993 12.7803699999999996
 19.7546199999999992 10.9626500000000000 12.6750799999999995
 18.1106900000000017 13.1881299999999992 12.3406500000000001
 17.4780200000000008 10.6132700000000000 11.2884499999999992
 13.4495900000000006 14.0905500000000004 12.3930799999999994
 13.0526199999999992 11.4717000000000002 11.3419399999999992
 16.0496799999999986 15.0027100000000004 12.7039799999999996
 15.5919600000000003 12.7277000000000005 11.3259899999999991
 15.1112699999999993 10.3357299999999999  9.9983199999999997
