Au30 rank 3
1.0
   26.4769572953863417    0.0000000000000000    0.0000000000000000
    0.0000000000000000   28.3277453422616219    0.0000000000000000
    0.0000000000000000    0.0000000000000000   27.4738077140408521
  Au
  30
Direct
    0.4302002493482939    0.4979147204557932    0.6372150617438724
    0.5332334316601373    0.5130682060076350    0.6308789024561936
    0.4644125350194191    0.5840573449157964    0.6069040587659875
    0.5661610307631688    0.6027052974461314    0.6138112796717644
    0.4919414415455463    0.4236738996888656    0.6112669407294188
    0.5953384571829837    0.4379003366039591    0.6090715714170885
    0.3917579207630723    0.5340281483356677    0.5502212119756171
    0.6139408300327183    0.5256114649935899    0.5688544758695916
    0.4022379053963411    0.4378696197315789    0.5626320980142813
    0.4113503387147117    0.6275946405301328    0.5356258566300022
    0.5151813998874750    0.6412111628459118    0.5362847844000667
    0.5534097585286365    0.3741535736246729    0.5462588703993806
    0.4532432426838591    0.3509837449583567    0.5580453132771453
    0.6154424155525502    0.6139596112388991    0.5266503424694139
    0.6183147622105392    0.4465331694051041    0.5103059837355558
    0.5928184290750315    0.3698037839540679    0.4554309646841613
    0.4898703087181986    0.3537538615881167    0.4644831221851651
    0.3904723208783016    0.3786172472314973    0.4837296326721908
    0.6199292068338337    0.5354668298712700    0.4691194103651726
    0.5586873234513444    0.6149025464246838    0.4446984799989449
    0.4616181011843767    0.6488970702781657    0.4509778897686892
    0.3801777110741797    0.4738295601863785    0.4718351621186678
    0.3999107846752677    0.5683579043135152    0.4566484516989020
    0.5941766107369650    0.4581454560997313    0.4133366353383084
    0.5292109769168384    0.3872270679896780    0.3785811062008015
    0.4337228595833948    0.4168338305931223    0.4035705096306273
    0.4798741128369829    0.5729762723897085    0.3926422647959627
    0.5793594636048576    0.5476937944154581    0.3761609610476382
    0.5050543533500180    0.4800542849294118    0.3667606749751089
    0.4052029510952613    0.5064691311801162    0.3790604092121404
