Au30 rank 20
1.0
   28.2037885895826932    0.0000000000000000    0.0000000000000000
    0.0000000000000000   28.1376647590203248    0.0000000000000000
    0.0000000000000000    0.0000000000000000   28.8553951349868143
  Au
  30
Direct
    0.5142637752368353    0.5016702605685717    0.6529871250486443
    0.4889142247690258    0.4102037912083271    0.6301494577693956
    0.4288786131697578    0.4861217681816896    0.6102632833382661
    0.5727425695080091    0.4472542717104181    0.5972650774392562
    0.5713754653831227    0.5507076987764246    0.5940575602482600
    0.4762996662721815    0.5729536410840858    0.5997983335215902
    0.6446602714908560    0.4966642006526494    0.5570994949177707
    0.4292796553717302    0.3979561705740736    0.5577000754143516
    0.3543740282150201    0.4622633470807069    0.5558975502468974
    0.6259087244745672    0.5855937042902845    0.5218064295945233
    0.5242142831134171    0.3773086246002005    0.5470175499297922
    0.3931140715137840    0.5518963673488005    0.5485973041475501
    0.4421522159508324    0.6344365828538213    0.5361270274766672
    0.5376226633959668    0.6213278143007405    0.5370508547119582
    0.6077743916558300    0.4196337105898848    0.5126256230234323
    0.3708721965640778    0.4027700982348043    0.4819113822031457
    0.6257765324232528    0.5070155519170492    0.4636419308164760
    0.3685730825198286    0.5002269825177332    0.4691358142537803
    0.4625210910578517    0.3725226697354718    0.4694971863076427
    0.4113562089571164    0.5870945263476012    0.4588908685644473
    0.5564723253823499    0.3567990157711346    0.4602373979810994
    0.5668306596483907    0.5846630544727514    0.4468218315082021
    0.4911357183690777    0.6450167266179391    0.4547314035298896
    0.6098492375525176    0.4246112668464659    0.4164883919095178
    0.4219687708098145    0.4366103907210368    0.4091326771105750
    0.5596921297632536    0.5043104715358556    0.3932106821370843
    0.5146705379915684    0.4108506799757470    0.3935518463797168
    0.4869382170216752    0.5714889411823180    0.3933805341746209
    0.3989541877290391    0.5291299421066277    0.3841458052068557
    0.4775865000987851    0.4859798492775373    0.3464036593349524
