Au30 rank 8
1.0
   28.1971299776968749    0.0000000000000000    0.0000000000000000
    0.0000000000000000   28.0975594256352430    0.0000000000000000
    0.0000000000000000    0.0000000000000000   27.7076852948747820
  Au
  30
Direct
    0.4024600639744646    0.5125896657979163    0.6383710623553279
    0.4858796502314003    0.4657448229160714    0.6212541551878442
    0.4842779931708867    0.5628499539990702    0.6066045136756361
    0.5672345438308014    0.5112696239451829    0.5973813813836510
    0.3942187175417735    0.5991719256946580    0.5962345560807509
    0.4730800648137522    0.3714286719669534    0.5945458784410368
    0.5612077734301483    0.4111799268904620    0.5880168148074191
    0.4002591409599650    0.4344327827416629    0.5807558984347174
    0.6438915651151116    0.4577854374358712    0.5675395494595517
    0.3584189433110348    0.5201762315698940    0.5473963578518964
    0.5540666928778372    0.5967626154370779    0.5464346234808288
    0.6384806405876576    0.5489577213841996    0.5363895378172446
    0.4627398390252456    0.6300648213375319    0.5344624100139240
    0.6169291550448330    0.3843128726928388    0.5091115011675704
    0.5248758300510304    0.3560558198197117    0.5122752643300601
    0.4281897699697808    0.3761698885649516    0.5050709209265145
    0.3729310310824808    0.6056955700417740    0.4998745410786045
    0.3537642555675057    0.4393670832298793    0.4934023824778983
    0.6204024007480836    0.4753547942772036    0.4701878438226142
    0.5883586304934894    0.5684232660615258    0.4558018375129320
    0.5267444141829013    0.6445945535018522    0.4638398043434729
    0.3856008819687357    0.5230141867130907    0.4501511017080685
    0.5646152819127431    0.4058326625808750    0.4293208088839090
    0.4438613612425795    0.6014136462210471    0.4341784784808875
    0.4815720002989795    0.3547653156373818    0.4242213904860035
    0.4231242929755303    0.4354662101737552    0.4244695992271557
    0.4974584285218284    0.4294161632517993    0.3608369893840420
    0.5605557233332049    0.4972743594911312    0.3937863892555551
    0.4603411928286373    0.5167406979298558    0.3863307205361575
    0.5268241924853466    0.5886768779152148    0.3816684731240377
