Au
 1.0000000000000000
    28.9459192899999991    0.0000000000000000    0.0000000000000000
     0.0000000000000000   27.4830899279999983    0.0000000000000000
     0.0000000000000000    0.0000000000000000   28.7879837619999996
 Au 
  30
Cartesian
 14.2362400000000004 14.1540900000000001 18.6609200000000008
 13.1599900000000005 16.2165600000000012 17.1236600000000010
 17.0332100000000004 14.3058499999999995 18.7912099999999995
 11.6739499999999996 13.9791200000000000 17.8150900000000014
 15.6480599999999992 16.5644600000000004 18.1511700000000005
 15.7887799999999991 11.8893100000000000 18.4795400000000001
 13.3941099999999995 11.8618600000000001 17.1938800000000001
 17.7349299999999985 12.6783699999999993 16.6717000000000013
 15.6743000000000006 10.9119799999999998 15.9421499999999998
 17.4828299999999999 15.5473400000000002 16.3568399999999983
 11.1555099999999996 15.2441999999999993 15.4213400000000007
 11.2688699999999997 12.4806299999999997 15.5402100000000001
 15.2595500000000008 16.9270099999999992 15.4457400000000007
 18.9536599999999993 14.0683500000000006 14.6462599999999998
 12.6068999999999996 17.5001999999999995 14.7646599999999992
 13.1789000000000005 10.6862499999999994 14.7089800000000004
 17.4668099999999988 11.7968100000000007 14.0767900000000008
  9.9867899999999992 13.7986000000000004 13.4201899999999998
 16.9305300000000010 15.7316500000000001 13.6473700000000004
 15.5173299999999994  9.9779199999999992 13.3677600000000005
 11.0197699999999994 11.2494899999999998 13.0912699999999997
 11.6624900000000000 15.8865300000000005 12.7586399999999998
 14.4112500000000008 16.5756799999999984 12.8600100000000008
 18.1836300000000008 13.6788299999999996 12.0873500000000007
 13.4621099999999991 11.0820699999999999 11.9213699999999996
 16.0495899999999985 12.0275099999999995 11.6280699999999992
 11.7951400000000000 13.3420699999999997 11.4408200000000004
 15.7957699999999992 14.7783099999999994 11.3130199999999999
 13.2600599999999993 15.5376899999999996 10.5948100000000007
 14.0900700000000008 12.9686199999999996  9.9870699999999992
