Au30 rank 13
1.0
   27.9380095823868011    0.0000000000000000    0.0000000000000000
    0.0000000000000000   27.8529064292071418    0.0000000000000000
    0.0000000000000000    0.0000000000000000   26.8089644971778966
  Au
  30
Direct
    0.4619473540377886    0.5492277870716696    0.6309095174541519
    0.5573775010351485    0.5180983335530575    0.6279976200289299
    0.4825919815248753    0.4502031366397889    0.6215067041725261
    0.3906175715860579    0.4813446530160484    0.6189832487115211
    0.5758729760809560    0.4197125198749864    0.6184959752490768
    0.5337984435215818    0.6093191106196575    0.6058476252703302
    0.3770539122145180    0.5728068080936418    0.5853659504614642
    0.6410678137514947    0.4864897806718519    0.5864500198470894
    0.4527040966607476    0.6250715562892225    0.5530355630159765
    0.4178343952886069    0.4164737651153494    0.5493191757851514
    0.6121089613838231    0.5748568986146456    0.5571877867274561
    0.5127504524827743    0.3880445973011127    0.5486883715762291
    0.3547969940084192    0.4961869141603846    0.5244176321025241
    0.6110089857409691    0.4177430984922109    0.5209530012026237
    0.5448320816451018    0.6361890845485610    0.5084122301239293
    0.3852270459015937    0.5853327180006643    0.4850636728116620
    0.6437274053654531    0.5059471603640845    0.4861387835897570
    0.3721424543474383    0.4216031084139507    0.4604990326488932
    0.5566004708363265    0.3587079625500217    0.4632207355153914
    0.4597973352001195    0.3805409629805583    0.4619690808462036
    0.4631506288660631    0.6345931671362504    0.4528201459848396
    0.6230626083992079    0.6009042286073799    0.4606944119990752
    0.3625999533605141    0.5125197022458901    0.4227359989532821
    0.5982859378139819    0.4416396231458353    0.4229882792046686
    0.5390060434818830    0.5937452517887964    0.4065393044517020
    0.4459518493179577    0.5558767823028976    0.3979155786916000
    0.5243947248966665    0.5000203235796071    0.3738415463047203
    0.6149742808471473    0.5318662392662249    0.3901115114433911
    0.4354043803624856    0.4557273800509977    0.3884545462263206
    0.5172299887379538    0.4040321313278740    0.3812057398846677
