Au30 rank 15
1.0
   28.5128991610316334    0.0000000000000000    0.0000000000000000
    0.0000000000000000   28.2470782715685154    0.0000000000000000
    0.0000000000000000    0.0000000000000000   27.9918164338769877
  Au
  30
Direct
    0.5806123712388701    0.5281876579246020    0.6426089590248540
    0.4996963863220303    0.4800345248185363    0.6352441262681056
    0.4150096373838374    0.4364884419713189    0.6247785787999073
    0.5044201605236530    0.5790100442163960    0.6149435031093086
    0.4206524495918876    0.5327006323153616    0.6098281746691988
    0.5794405420842716    0.4421255104519761    0.5918143575591428
    0.6458174754610588    0.5145486133639899    0.5745568630743535
    0.4246949269096397    0.6257840570185488    0.5849775804272024
    0.4938131056379290    0.3991146931607224    0.5807816149673780
    0.5880586138516588    0.5917233764908660    0.5658145911471576
    0.3501714147909092    0.4826869952241638    0.5642021992397418
    0.5069733208558510    0.6368421030540834    0.5330218606887178
    0.4040664238537743    0.4094613704504570    0.5326826499793337
    0.3770602730849316    0.5666102836550764    0.5228387910227132
    0.6388573421901418    0.4429656353804124    0.5115606587628060
    0.5569512304212096    0.3962034754339414    0.5064706637056519
    0.4719524061633562    0.3530258564696481    0.4962898439250507
    0.6256140690819076    0.5369151441351367    0.4814917887051339
    0.5805702001664795    0.6209421997152410    0.4740739449613448
    0.4208490645700023    0.6463872339616917    0.4892787439222634
    0.3775222071048889    0.4861815928892380    0.4697065207274779
    0.5849865110984447    0.4611700757316389    0.4337082767600088
    0.4942771229569575    0.6245410558610519    0.4318628797750509
    0.4098234258845013    0.5698650839960976    0.4291865904701854
    0.5027747023106672    0.4125213514424230    0.4250068018560214
    0.5632246097725561    0.5546079099727369    0.4065515124740417
    0.4070803654010693    0.3993625982472483    0.4359816033387090
    0.5258038309567749    0.4778912777104442    0.3575538360909715
    0.4350010867110948    0.4818541145317284    0.3925056579040009
    0.4782772512375379    0.5622866209118671    0.3600218082083956
