Au30 rank 4
1.0
   28.4713505185375340    0.0000000000000000    0.0000000000000000
    0.0000000000000000   28.2161480431626401    0.0000000000000000
    0.0000000000000000    0.0000000000000000   27.6463506103170360
  Au
  30
Direct
    0.4195618092148399    0.4610671177174420    0.6370900089933463
    0.4919793124182958    0.5239431010144322    0.6240532570507741
    0.5079031024877277    0.4294902440744826    0.6034211467373308
    0.5781407826338478    0.4953412663757037    0.5930356932910937
    0.4258604645059175    0.3788253068437603    0.5875094799203130
    0.5555998126216533    0.5933519094304627    0.5954101448146509
    0.4630003022599533    0.6160081471427428    0.6083940503161647
    0.4000956792045712    0.5444461742972642    0.5927007138008270
    0.5758685367320341    0.4158689089871899    0.5308046667728817
    0.6423492484610048    0.5634973617590425    0.5675981950584583
    0.3784430931880711    0.4558360342447275    0.5465363112446069
    0.5040116615332654    0.3537083389592343    0.5369317419740522
    0.6485920040139193    0.4774681574982302    0.5225385706889666
    0.6027872741787742    0.6396002802773185    0.5204753838258125
    0.5077598887220667    0.6472791667600295    0.5263638499155150
    0.3516400368156886    0.5405157966337660    0.5070408735688339
    0.4167906648503943    0.6123946224211217    0.5200906840140624
    0.4253837506679698    0.3894617852661885    0.4889807025197540
    0.6262545862058505    0.5580662398973304    0.4691916855719050
    0.5555995874397717    0.6179295411108812    0.4374255703263144
    0.5197576802085375    0.3973286531955637    0.4501216633410058
    0.4637468030725793    0.6448911318254495    0.4386455316361468
    0.5911506902675014    0.4639067598550543    0.4447433106306479
    0.3846764020838001    0.4685185330350783    0.4485200080435250
    0.4077843371975685    0.5659512098527463    0.4323467332275495
    0.4419244067809142    0.4100979556532438    0.3944466832754940
    0.4911547603753220    0.5697185687737104    0.3807116504855207
    0.5837499086307981    0.5401509581831911    0.3835112374926847
    0.5159607924423903    0.4715837116414783    0.3835775924196376
    0.4241905911837361    0.5008263284012680    0.3621404464093647
