Au30 rank 6
1.0
   28.7737242018632102    0.0000000000000000    0.0000000000000000
    0.0000000000000000   28.1199049459899513    0.0000000000000000
    0.0000000000000000    0.0000000000000000   27.5126719943363298
  Au
  30
Direct
    0.5335283302172156    0.5637206983539117    0.6326582447155263
    0.5692519716085893    0.4730058188202465    0.6367438778214914
    0.4730543857956388    0.4901761373316461    0.6250818245389935
    0.3841975825763267    0.5165927147557733    0.6028315363478192
    0.4499242811540802    0.5855584503045842    0.5926307601345409
    0.5136800654903980    0.4095791046720583    0.5858816154033365
    0.4193898008397389    0.4292946840339755    0.5731253429525928
    0.5941986363148466    0.5323339769754932    0.5606088669825587
    0.5305882138228127    0.6005884077706981    0.5374018025971860
    0.6042758881987369    0.4317921055101047    0.5548938941023300
    0.4659101881888225    0.3656062099894093    0.5137769432783519
    0.4491389302094258    0.6438394382222087    0.5140299396006105
    0.3785142346671160    0.5760992690061675    0.5241553997508300
    0.3539467139048250    0.4797391307402094    0.5171744157816792
    0.5601554242724852    0.3546795251141344    0.5173697546279298
    0.3709827088766519    0.3862858013233484    0.4978282996945854
    0.6512354278715999    0.4918677401855615    0.4934616059620269
    0.5820911079595350    0.5572122290965290    0.4651454768885422
    0.6070879625682523    0.4132582306187519    0.4546326600187454
    0.4979428085041814    0.5959074065042440    0.4394880969704668
    0.4044854446347690    0.6153762114279175    0.4323631416355905
    0.5236042479475851    0.3695598633763290    0.4273496229102424
    0.6238473905026559    0.4972351984001467    0.3991211858163371
    0.3482048574406393    0.5379193743951995    0.4372102956211879
    0.4296160602801686    0.3613886142347484    0.4229796367323189
    0.3894007646928767    0.4515978505610030    0.4249520309920973
    0.4376145166536604    0.5306829693807417    0.3961207856754539
    0.5321953765301130    0.5218718098156523    0.3859405601846213
    0.4729244994278372    0.4407582820361046    0.3795570573535598
    0.5655593289164699    0.4297965231744894    0.3640433226753453
