Au
 1.0000000000000000
    28.7160955039999983    0.0000000000000000    0.0000000000000000
     0.0000000000000000   28.2900231429999991    0.0000000000000000
     0.0000000000000000    0.0000000000000000   28.1357902290000013
 Au 
  30
Cartesian
 16.1974899999999984 11.1266099999999994 17.3965899999999998
 14.6724999999999994 13.3080999999999996 17.9321300000000008
 17.4354000000000013 13.5824400000000001 17.6411300000000004
 15.8421500000000002 15.6987500000000004 16.9617100000000001
 13.3569099999999992 15.6517300000000006 18.1867200000000011
 13.8466400000000007 11.4471900000000009 15.9953199999999995
 13.7926300000000008 17.1715100000000014 15.8400800000000004
 12.3132800000000007 13.6786999999999992 16.4996299999999998
 17.9337699999999991 14.9148999999999994 15.3114600000000003
 17.8289299999999997 12.0722299999999994 15.3408300000000004
 11.2638999999999996 16.3082799999999999 16.5748399999999982
 16.0152399999999986  9.9978999999999996 14.9314499999999999
 10.5517099999999999 14.6225299999999994 14.5626200000000008
 11.8473500000000005 12.1553400000000007 14.2838499999999993
 11.6919599999999999 17.1286899999999989 13.9821100000000005
 16.1794000000000011 16.9043600000000005 14.5181699999999996
 14.0959299999999992 18.2567300000000010 13.3420100000000001
 18.7009599999999985 13.3855500000000003 13.1533499999999997
 16.5749600000000008 11.6700700000000008 12.8251600000000003
 18.1290000000000013 16.0580199999999991 12.7800799999999999
 14.0112500000000004 10.6203299999999992 13.2596200000000000
 10.0499799999999997 13.0926899999999993 12.3827499999999997
 10.3796900000000001 15.8057599999999994 12.0083199999999994
 11.9882700000000000 11.3261199999999995 11.6166300000000007
 15.7099799999999998 16.7889400000000002 11.6777800000000003
 12.9300800000000002 16.6574799999999996 11.4536200000000008
 16.6420099999999991 14.1084700000000005 11.4899900000000006
 14.4640699999999995 12.4728999999999992 11.2256300000000007
 12.1165299999999991 14.0140100000000007 10.8034099999999995
 14.5080899999999993 14.9471200000000000 10.0020699999999998
