Au30 rank 16
1.0
   28.4597023529528528    0.0000000000000000    0.0000000000000000
    0.0000000000000000   28.8415347033238518    0.0000000000000000
    0.0000000000000000    0.0000000000000000   27.8696335299797511
  Au
  30
Direct
    0.5559865966407443    0.4422802298016579    0.6249791545962338
    0.5391371990861078    0.5345689690274374    0.6194316848713342
    0.6111345978293259    0.4931381147678414    0.5642792896177853
    0.4406139937346040    0.5467922638814009    0.5856512355233258
    0.4656758394048888    0.4729537581307860    0.6405605563996689
    0.5846594151372048    0.5853785086868142    0.5510060371049413
    0.5026640049495240    0.6185760958793043    0.5956953365697101
    0.4833116346647670    0.4024685731004225    0.5752368890881842
    0.4053647381596334    0.4605854792563580    0.5644773641388480
    0.5787954086712280    0.4051961140850890    0.5386805948689883
    0.4389273255572170    0.6169774759114623    0.5188993783889202
    0.5282562991804653    0.6497245784765496    0.5063915432230164
    0.5094448237142256    0.3501782207401650    0.5001917864451678
    0.3795168259931897    0.5394645114432022    0.5091936556916851
    0.4227071599819682    0.3892287235391914    0.4972740103665332
    0.6483580373428893    0.5453819719945783    0.4917260068091022
    0.3517378027955829    0.4530224334912633    0.4844000940636271
    0.6266185343716570    0.4559613004978272    0.4717999217646026
    0.5789947856566595    0.5957265568152290    0.4475501376232199
    0.5819524962983380    0.3779033352406820    0.4418720296818934
    0.3920154515422186    0.6008192899765584    0.4365303095131687
    0.4863761189697554    0.6201269434627461    0.4244689098880110
    0.4880040906180886    0.3912726589407582    0.4145576414989047
    0.3776437720376462    0.5104516691670012    0.4100681618076611
    0.3974943298972577    0.4175853851258206    0.4061491733104150
    0.6224321015173511    0.5233146100118781    0.3993098081893139
    0.5555396277001217    0.4562733133006726    0.3935720789965766
    0.5317032590401094    0.5468912067998658    0.3755544275285689
    0.4636014816747201    0.4749275801486859    0.3688282236709652
    0.4394803389367462    0.5651302050809502    0.3594252575214710
