Au30 rank 11
1.0
   27.1891990779091763    0.0000000000000000    0.0000000000000000
    0.0000000000000000   28.4642193206984260    0.0000000000000000
    0.0000000000000000    0.0000000000000000   27.6485639285188043
  Au
  30
Direct
    0.4629081061786998    0.5284387916139115    0.6383676547026140
    0.5467257951285452    0.4766160541937262    0.6253002965846608
    0.5357692555185946    0.3815106239749129    0.6099794367670037
    0.4526999197532449    0.4385154077916593    0.6046053848372220
    0.5431287061960178    0.5706612630872935    0.5977262021632554
    0.4454951195475851    0.5991499178079669    0.5755225764940983
    0.6254163237773436    0.5199502520054422    0.5762840114378843
    0.3958230092019301    0.5101552880479165    0.5667594737314173
    0.4536692640247046    0.3516946752472504    0.5591356799229507
    0.6057557551199988    0.4267939095998711    0.5588802939412303
    0.5282046675657327    0.6426234773984613    0.5353280778910124
    0.3979424816391771    0.4230435015095553    0.5232122690240254
    0.5439244464701682    0.3576330276297982    0.5129222098161247
    0.3686547347226675    0.5840667857239284    0.5117854911219324
    0.5893517794035225    0.5738983500685328    0.5031309394444851
    0.4405484601497525    0.6475043749992584    0.4878714458860109
    0.6328327778651992    0.4867403765982313    0.4839791430160184
    0.3670557940470162    0.4989974619966198    0.4681086552245071
    0.6288796143094401    0.3900473644265854    0.4715082742957448
    0.4571271536340993    0.3607383171615542    0.4614569605362971
    0.5197455104699934    0.6076323916056092    0.4411809191746702
    0.4193986601108286    0.5753461380271945    0.4258119774163659
    0.3765223828486403    0.4115361406962585    0.4274489710981182
    0.5464515690319440    0.3806032602880760    0.4151513483737101
    0.5820475900584284    0.5363856538529548    0.4109146417036059
    0.6194131632851518    0.4485079844279897    0.3935054105889485
    0.4274351433041093    0.4859009717664315    0.3867138292989730
    0.4581656753061881    0.3951464411209507    0.3696139059867316
    0.4931197741000009    0.5543850513019120    0.3638355530942456
    0.5263675918296356    0.4641765854414922    0.3633333356483784
