Au30 rank 1
1.0
   28.9692683446886861    0.0000000000000000    0.0000000000000000
    0.0000000000000000   27.6069096164085508    0.0000000000000000
    0.0000000000000000    0.0000000000000000   28.1199656101496061
  Au
  30
Direct
    0.5250551868400528    0.5394459355949711    0.6467607897059440
    0.5235032353777148    0.4407693711805789    0.6402456676009416
    0.4449561705694103    0.5902272088305104    0.6413002836608147
    0.4413688301007815    0.4898897759290352    0.6332166187804685
    0.6029416010683186    0.5856709158186009    0.6151851974605707
    0.5941656727164493    0.4880905968543226    0.5942737493247020
    0.5183485550751608    0.6181331955259154    0.5838579115739290
    0.3758252870823804    0.5501144357102560    0.5891801979207886
    0.4587908878437479    0.4073256002904905    0.5776418479663292
    0.6554421643960152    0.5455101837230718    0.5433214291996463
    0.3764309785122608    0.4536790732003487    0.5696362167026541
    0.5548511329122896    0.4099507620177392    0.5531222616942276
    0.4318399014731795    0.6234795510234072    0.5492297332670912
    0.5923231083527483    0.6157618234049091    0.5208789222686971
    0.6192166733817681    0.4637598862608244    0.5014584571389878
    0.3459026453906555    0.6079560283502395    0.5134792632406227
    0.4908162531852658    0.3616737657668352    0.4976501834250838
    0.3789212937715360    0.5178893775416874    0.4938266084584018
    0.5043137034317157    0.6333558924270842    0.4872282489890686
    0.4262927092491707    0.4341967857531730    0.4873689328799328
    0.6276672011185530    0.5496279616962961    0.4510991008912393
    0.5757118752288537    0.3859757668478325    0.4596450013061668
    0.4191999693626762    0.6011613965489537    0.4514541530989700
    0.4976373046722786    0.4263708142174797    0.4215895114924650
    0.5873104893498553    0.4687117981050967    0.4086444044897334
    0.4411493802013223    0.5070785288535394    0.4210779156113379
    0.5096076078735539    0.4962328444745429    0.3552333259359204
    0.5784234013261886    0.6339256388893005    0.4273523549205804
    0.5813182414379066    0.5581169366482420    0.3663143333886399
    0.4957188934972738    0.5878143428948703    0.3983963652850854
