Au30 rank 19
1.0
   28.0121449823913728    0.0000000000000000    0.0000000000000000
    0.0000000000000000   28.4258879968175791    0.0000000000000000
    0.0000000000000000    0.0000000000000000   28.7447775077666705
  Au
  30
Direct
    0.4684074851636742    0.4972772338224140    0.6514141068728301
    0.5609213928960661    0.5054063034569982    0.6246634422537408
    0.5000792435216631    0.5806636168817692    0.6121758808161066
    0.4052959822851747    0.5553850827882828    0.6068764078208841
    0.4991311532376019    0.4236060908633313    0.5997695446208806
    0.4073341834950162    0.4592942435918745    0.5862661344481964
    0.5891376019698094    0.5811958241748300    0.5712090729822554
    0.5948046445326723    0.4205666518410808    0.5924406542082061
    0.5421576253449304    0.3760283916137939    0.5261423882218090
    0.5204380661700321    0.6471831678920448    0.5474657178647000
    0.6422556623874458    0.5014921902624824    0.5697815889524039
    0.4437163656416859    0.3905362664738239    0.5271442470452833
    0.4360737919833900    0.6034888364697647    0.5321352411552877
    0.3710708898246269    0.5301295738586956    0.5217117017823892
    0.3605802520679530    0.4333153867203148    0.5072132953517627
    0.6207393734422555    0.4382714058880259    0.5001263113514901
    0.4953208423545808    0.6255366982160439    0.4572027452559687
    0.5908053146474206    0.6241991382192578    0.4853730488687248
    0.4856686687187944    0.3526659355520397    0.4509985505930330
    0.6225757899566892    0.5350049507906348    0.4837207052850386
    0.3581461272671550    0.4942783930492062    0.4335443433581082
    0.5768289346432751    0.3833713190166954    0.4352764485881113
    0.4131447653876328    0.5718681709839077    0.4439637348485961
    0.4155465206958417    0.4149400076792745    0.4298429278457523
    0.4765624272437325    0.5825131141145207    0.3745483026956902
    0.5905618981200242    0.4746649988941190    0.4150097006354960
    0.5027022089390004    0.4227264227053592    0.3858952662794218
    0.5686831019997095    0.5703003487776309    0.4100151938395713
    0.4364356902887537    0.4941065457378180    0.3780488826136843
    0.5299153375930079    0.5062143889935166    0.3486738501792036
