Au30 rank 2
1.0
   27.6976531452880224    0.0000000000000000    0.0000000000000000
    0.0000000000000000   27.4085601745186267    0.0000000000000000
    0.0000000000000000    0.0000000000000000   28.8186600358591818
  Au
  30
Direct
    0.5406479296462968    0.5299343739382314    0.6529826803006672
    0.5636684223152121    0.4467281374729458    0.6067331912910575
    0.4679028767173100    0.4803675545400912    0.6091515066566761
    0.5628220434282794    0.6184468176496331    0.6147176291194479
    0.4699284070289704    0.5811852447842955    0.6059914787853528
    0.6123122381294168    0.5345509830471226    0.5850895817268005
    0.4893045774547674    0.3829219400207200    0.5892856217287479
    0.5616687647756978    0.3906060990958692    0.5252720982921713
    0.6387288139416308    0.4508645312658266    0.5431143608672192
    0.4125227723614673    0.4307658130860566    0.5459288538882148
    0.4013108911101850    0.5298807183250653    0.5563270890182400
    0.4150134742092063    0.6314388716990601    0.5435122085177480
    0.5128081575458892    0.6356300904102533    0.5327442619926458
    0.6113636174081661    0.6196309646843482    0.5320872837517552
    0.3605990853093159    0.5826038285714539    0.4814143745724881
    0.6325778000113409    0.5342166065549349    0.4888544150840031
    0.4687546249679613    0.3617238499666707    0.4982023837926933
    0.3605164834715343    0.4830442138470171    0.4809497461055797
    0.5571193966327884    0.5937471796621236    0.4565492469142472
    0.3787496276853672    0.3848491799980017    0.4679656332816547
    0.4582622823531362    0.6021864547724872    0.4589384736377005
    0.5436856899684110    0.3656864205434076    0.4344635702268990
    0.6031386122670144    0.4432665240242550    0.4543345616060951
    0.4033387553754151    0.5375034001997786    0.4076731724836010
    0.4554701388545791    0.3941392864347917    0.4058948395201670
    0.6005061042989555    0.5242504456406862    0.3991236392254700
    0.5018001769458372    0.5441741485395337    0.3932728033078728
    0.3680544628464876    0.4440056759689011    0.3922361690969420
    0.5376373044896451    0.4492029436202835    0.3803703303634912
    0.4494350993201880    0.4747438226653204    0.3470508454289455
