Au30 rank 12
1.0
   27.5534900451150477    0.0000000000000000    0.0000000000000000
    0.0000000000000000   28.3600374374325952    0.0000000000000000
    0.0000000000000000    0.0000000000000000   28.2134955445597413
  Au
  30
Direct
    0.4248915455850784    0.4474926887969217    0.6443883183932100
    0.4870949294339745    0.5210532825857543    0.6467271097826954
    0.5820380244719860    0.5041945344932731    0.6311014432032602
    0.5209106585506025    0.4278500655333657    0.6281350333899212
    0.5486833443515508    0.5900786992291371    0.6028615496456324
    0.4503935119719839    0.6013089037980185    0.6086599753924997
    0.3926027339622688    0.5256440561597525    0.5973977062444750
    0.4471953964433532    0.3838676652221709    0.5745983803036449
    0.3628602076524309    0.4360063974781485    0.5688395460842519
    0.5429003232163423    0.3615990569542414    0.5605725232860531
    0.6014620642441357    0.4377891076964395    0.5654759736686659
    0.6238286132105886    0.5354246311347226    0.5494969051546571
    0.5892376199234570    0.6205649829897045    0.5204283962797234
    0.4944830233116779    0.6409591412267128    0.5325508926862266
    0.3970465532120361    0.5975757670728938    0.5289331437552509
    0.4779249697252005    0.3522812091969953    0.4871399906211850
    0.3649468828036178    0.5066314144475984    0.5030784287820903
    0.4372320231339391    0.6461860242735066    0.4550409588831932
    0.6318373518544713    0.4692523907401071    0.4797058663958968
    0.4084050903506247    0.4198668202019246    0.4853181187049654
    0.5332244190903271    0.6252575783654690    0.4401680005481258
    0.6090798394582583    0.5578179912597651    0.4512836638663290
    0.5658049291607010    0.3995433508143647    0.4744387120387484
    0.3716304808580277    0.5756011592903530    0.4358808673838136
    0.4593298559993436    0.5788786717493770    0.3888375716786531
    0.4128670164110569    0.4907702191067433    0.4177892918646935
    0.5700649015902945    0.4715079217708552    0.4060055030898435
    0.5552581695805371    0.5602792686666695    0.3713584410260396
    0.4832704833569079    0.4206145420487063    0.4192257075204212
    0.4865769619263084    0.4918780587645860    0.3541923041238487
