Au30 rank 18
1.0
   27.2719570528580242    0.0000000000000000    0.0000000000000000
    0.0000000000000000   27.6445227894859080    0.0000000000000000
    0.0000000000000000    0.0000000000000000   27.3256039218903908
  Au
  30
Direct
    0.4928105917819686    0.5706375384990052    0.6338158164661499
    0.5834871599701099    0.5255296191549794    0.6252692687111991
    0.4972195133789836    0.4717593832990600    0.6184583913127534
    0.5089489283232309    0.3792750915771183    0.5871694528788520
    0.4216368658409235    0.5255600109043548    0.5804026632138186
    0.4278232820953374    0.4279949469624492    0.5580096897914509
    0.5629023005225399    0.6048374546301002    0.5695032673886253
    0.5904438920123634    0.4389446025236843    0.5777555375881405
    0.6265765841222173    0.5236057215294209    0.5366101905485118
    0.4652167488564211    0.6182729072029156    0.5495490476170811
    0.3721249901949265    0.4905224331619604    0.5003161550916992
    0.4781852957088775    0.3591184301117465    0.4938254953061357
    0.3732080370094654    0.5885908970742827    0.5205894725748068
    0.6317424006338229    0.6150986806647986    0.4996275655708281
    0.3878391303573902    0.3974615924482045    0.4726735180945695
    0.5771936133877614    0.3625005549033425    0.5156396444103095
    0.6212261017309231    0.4423252753158630    0.4785552636523849
    0.5345199673651206    0.6429151267726163    0.4806932734993162
    0.4394501424448137    0.6234494366676802    0.4526009979488663
    0.3706186474170850    0.5575711081533965    0.4239412203837940
    0.5075448586722179    0.6340358959694168    0.3819213383763710
    0.4531953126519443    0.3812210418232859    0.3983617255252776
    0.6028554516111402    0.6219749106720095    0.4054582052260445
    0.6369927637001405    0.5342904995701849    0.4368349721982605
    0.5493649739514677    0.3853708070398584    0.4232482957509631
    0.5981738407962640    0.4612486090122429    0.3840694173264207
    0.4036341601360763    0.4671787108149938    0.4010496395519926
    0.5563324174265170    0.5465362085466965    0.3603902524250280
    0.5008175841802797    0.4605616407223734    0.3648911155526326
    0.4564077373739311    0.5494319352035529    0.3757595063109791
