Au30 rank 9
1.0
   27.5260685742740172    0.0000000000000000    0.0000000000000000
    0.0000000000000000   28.6025587320539714    0.0000000000000000
    0.0000000000000000    0.0000000000000000   27.2913345832019232
  Au
  30
Direct
    0.5209605316519363    0.5959923025301540    0.6295228162213707
    0.5545087072130106    0.5055760123758137    0.6179455292009183
    0.4580904753409629    0.5232086110385999    0.6292557227638371
    0.4877375120060975    0.4310058887910202    0.6140991741961054
    0.3900400192029767    0.4529165147692210    0.6182186717410589
    0.6251722393431940    0.4855953668464120    0.5460049522969571
    0.5897794916864693    0.5772137603754958    0.5571646356619100
    0.5843312180434256    0.4161266379096178    0.6033439553123292
    0.4388677982082713    0.6069985353651978    0.5699434093503853
    0.5217162821019456    0.3690089891552621    0.5413412632431031
    0.5251255731725722    0.6496680941826579    0.5469451171640897
    0.3676060092544448    0.5443504109185962    0.5935967898287270
    0.4241475265028096    0.3916010545307085    0.5494461525189488
    0.3673767971480840    0.4748580308467205    0.5231381990019249
    0.6151481544747754    0.3947969114814560    0.5121788769270518
    0.3848807079777373    0.5676165314668475    0.4969049141563753
    0.3768997450468994    0.4030001112435055    0.4592813632691732
    0.4600561671372311    0.6310074209612900    0.4739027724009777
    0.4593341478012460    0.3504678640066142    0.4658968267296958
    0.5624032365736202    0.6170188465534165    0.4617137571309335
    0.6314285061749686    0.5496336947285811    0.4733160771759056
    0.5476290190834099    0.3846465781054507    0.4409240257257436
    0.6145064668611713    0.4611602406586880    0.4413345990928008
    0.4570470647105995    0.4235757999229268    0.4006379610702880
    0.4085833445862940    0.5840645573577716    0.4021596853293606
    0.3915337557069842    0.4940160066333272    0.4286261981024897
    0.5020281288142355    0.6069102033045314    0.3842006046668363
    0.5725165014670073    0.5414697120340050    0.3938660263163507
    0.4715578714876937    0.5159082686127595    0.3682181287543494
    0.5447820474265983    0.4528967292721388    0.3713276946681746
