Au30 rank 17
1.0
   28.1845567494826881    0.0000000000000000    0.0000000000000000
    0.0000000000000000   28.2117034980763179    0.0000000000000000
    0.0000000000000000    0.0000000000000000   28.5249746708846317
  Au
  30
Direct
    0.5602723305746572    0.5540264337956834    0.6431339262243526
    0.5452083791220974    0.4616559169184744    0.6196002937883087
    0.4670886072424688    0.5393632655694983    0.6223819878580962
    0.6324377798684508    0.5089715256882635    0.6004167043347141
    0.4511471943262607    0.4457794595219580    0.6095441564040924
    0.5947020826251657    0.5917985931131865    0.5587675346247349
    0.5132352019399988    0.6274169298665108    0.6047991277187390
    0.4002053933359138    0.5078134561497085    0.5567250077601872
    0.4411486922625417    0.5959975743132396    0.5481835510736660
    0.5114343322018822    0.3970329540427686    0.5528382342199191
    0.5990929083517512    0.4389477086248795    0.5424167900900274
    0.4126332361262161    0.4100450978402142    0.5306633081018819
    0.6451228489563353    0.5266766328274173    0.5082118932134246
    0.5274605855108502    0.6436832883631326    0.5125350862324749
    0.4734113421482398    0.3555987361671656    0.4761177720445425
    0.6444573408196363    0.4432263061524915    0.4588446597010249
    0.3559678737451674    0.4725235235011810    0.4802839696136659
    0.6008780556383140    0.6015997686670619    0.4630537446681142
    0.3952322801886140    0.5593065592349247    0.4708331158960979
    0.3988307979189177    0.3997841969121345    0.4341870196434326
    0.5596546660256158    0.3957699630311117    0.4649542028464583
    0.4421825275305690    0.6443890261837764    0.4661849677105229
    0.6436676781561681    0.5291125341261766    0.4121811036436290
    0.5263191488949679    0.6457245778722831    0.4164724875095477
    0.4884955616693990    0.4152380668943570    0.3999135715443588
    0.4126080805900761    0.4906985984153351    0.4025587692788859
    0.5738863987757058    0.4631636602337607    0.3927834350613362
    0.4599483367671505    0.5764497054329614    0.3968586216638442
    0.5584202675922837    0.5619194252268677    0.3822784961268750
    0.4931949806671045    0.4975498586777882    0.3516508169017855
