Au30 rank 10
1.0
   28.3459696832996570    0.0000000000000000    0.0000000000000000
    0.0000000000000000   28.1554954381778373    0.0000000000000000
    0.0000000000000000    0.0000000000000000   27.6838730672279887
  Au
  30
Direct
    0.4603924613226197    0.5198674776440787    0.6413035898287941
    0.5490526350476767    0.4935472254626792    0.6136903998589744
    0.4766757508716812    0.4253319677942889    0.6190346757999275
    0.5695418597573987    0.3987828613558493    0.6224554707176596
    0.3993525638339430    0.4710506879474202    0.5809639790586553
    0.6000618285718633    0.5505108839345836    0.5523051320298747
    0.5187693437223490    0.5874874340606763    0.6010670365625046
    0.4188889875755764    0.3789317939674651    0.5547069236286927
    0.6171355969707006    0.4553112437870528    0.5542064507511122
    0.4335787685560613    0.5618896043548546    0.5567721426585782
    0.5132673684478741    0.3618820585783225    0.5474835050153641
    0.3526996502997252    0.5269489457741720    0.5156584472383274
    0.6107986297387118    0.3584231701702932    0.5434937889001819
    0.5771845322593692    0.6439670074865442    0.5469968052359099
    0.6479858249656277    0.4099478300977770    0.4692213257925166
    0.4987779543951645    0.6104636645390550    0.5023233124596791
    0.6235284392513279    0.5041461978588531    0.4682700922311366
    0.5906550401558904    0.5977058634848906    0.4610223779799638
    0.3852500667315290    0.4376734818967792    0.4844100673797450
    0.5582303295613136    0.3681627399747752    0.4598032291267375
    0.4613523760453965    0.3793293999873496    0.4647936405444872
    0.3589473448840513    0.5075197036977988    0.4193367805804386
    0.4224870659456992    0.5705606731537541    0.4583146520642027
    0.5908008086020822    0.4415326445341972    0.3963053615194344
    0.5082149685324032    0.5724655943113013    0.4114296202548033
    0.5936185980245441    0.5388353863837038    0.3814457048392183
    0.4302181083388824    0.4440800086686427    0.3967451414357212
    0.5091376262945879    0.3917281346848520    0.3787000228638931
    0.5134949314983288    0.4872292325508476    0.3584013409831061
    0.4313737197047561    0.5382292064014736    0.3624656506831636
