Au30 rank 14
1.0
   28.2922177797092083    0.0000000000000000    0.0000000000000000
    0.0000000000000000   28.3051680630478977    0.0000000000000000
    0.0000000000000000    0.0000000000000000   27.9796550426822286
  Au
  30
Direct
    0.5185601252657658    0.5761337835885412    0.6417876658567430
    0.4845775646798064    0.4886234142890514    0.6146547757210865
    0.5765464824945532    0.5128407738882147    0.5896921007374990
    0.3876806872925623    0.4852936377485689    0.6056747998999896
    0.4336292332967590    0.5716852382105745    0.5990753870432119
    0.5388128443594661    0.4282361424385245    0.5606863730911437
    0.4398278253327266    0.4158313540112390    0.5661024420018986
    0.6467036849974667    0.5561808313322895    0.5345092854122577
    0.5956449935041288    0.6107031017140144    0.5964730961720505
    0.5071922843779147    0.6278100251332925    0.5574161262019358
    0.3714453407135026    0.4670301453952021    0.5090604273246853
    0.3541732943345010    0.5554375727508474    0.5460817848817238
    0.4208685771962468    0.6180428086033150    0.5132466355347439
    0.4936869982541977    0.3552590415212625    0.5138903333969873
    0.5757217473535796    0.3879451000430269    0.4747687265040293
    0.6080702542052104    0.4728615119821610    0.5063074688816348
    0.5883403740590213    0.6272125569890040    0.5002399877323603
    0.3787880212119438    0.5466890063812460    0.4519834726857277
    0.6152392728414962    0.5483526602016507    0.4418797210315029
    0.5000128632768740    0.6472005869804209    0.4624439918008999
    0.4137823330671248    0.6299364151349686    0.4159638695390904
    0.4081783207667952    0.3843826452195318    0.4772772545571425
    0.5811941632366150    0.6311883042296016    0.4047992222712586
    0.4910717707593347    0.4015767507872149    0.4268418764785911
    0.4154642196784898    0.4621340391978617    0.4194757848373685
    0.5713489721723820    0.4650859773408447    0.4157828986141641
    0.4470653370264924    0.5464660181087122    0.3818079317073010
    0.4948264160311930    0.6313873247168741    0.3638770769008974
    0.5468072053241188    0.5464886124105032    0.3699277991928885
    0.4932219855725707    0.4665000856526680    0.3556135289928258
