Au30 rank 7
1.0
   29.2316948458640198    0.0000000000000000    0.0000000000000000
    0.0000000000000000   27.6144267183042516    0.0000000000000000
    0.0000000000000000    0.0000000000000000   27.7035180631519466
  Au
  30
Direct
    0.4495216298321061    0.4761667525773857    0.6379757502431245
    0.5336808899707335    0.5191404508807013    0.6364780296955371
    0.6067445021866663    0.4599506773348724    0.6216225476948817
    0.5397098530433254    0.6145904094085135    0.6161826213103313
    0.5222725846418906    0.4245550226130357    0.6016248002900467
    0.4577744938320760    0.5702575989428605    0.5974218067927698
    0.6140559534207967    0.5548948548996830    0.5913219806034454
    0.4344111316464145    0.4139881059482765    0.5627797087244080
    0.3926790307779101    0.5066730552935823    0.5662046036170392
    0.5083027146747838    0.3602005601113137    0.5270146280964323
    0.5950129056254420    0.6371865419309367    0.5398267235323918
    0.6562545420663778    0.4792096223289878    0.5408747609505637
    0.5897794783678064    0.4099381907237643    0.5327433989623925
    0.5018021208342208    0.6234953470208393    0.5244648481195394
    0.4150284392249542    0.5867841329544682    0.5101091610154608
    0.3619225612293047    0.4311292798807455    0.5036983199329382
    0.6376648674398857    0.5623143509924742    0.4930017407386311
    0.3436265152680075    0.5257295676164053    0.4851868400574820
    0.4417454750813012    0.3949770123375818    0.4659374654182218
    0.6138909571933380    0.4691353453438384    0.4539365635201627
    0.5376924944049518    0.4114897465257191    0.4483215817289646
    0.5644536256164027    0.6149165444065781    0.4501372693435018
    0.4724472518362612    0.6060706943201303    0.4324751979868420
    0.3947394854054297    0.4700552592917659    0.4177188518932313
    0.3874592714193896    0.5719427857627680    0.4133427544920061
    0.6182801083127044    0.5526271456226444    0.3975603311356040
    0.5472295287909363    0.4861945890524871    0.3858076902842091
    0.4714133017920643    0.4287477288778870    0.3791854029335365
    0.4585091157230372    0.5269037829121525    0.3687642640630664
    0.5357146028273972    0.5813143852948623    0.3595882136293478
