Au30 rank 5
1.0
   27.4013901996701676    0.0000000000000000    0.0000000000000000
    0.0000000000000000   29.0563067994714004    0.0000000000000000
    0.0000000000000000    0.0000000000000000   28.0180833910132208
  Au
  30
Direct
    0.5743915420558684    0.5464713481976038    0.6437915634615187
    0.4773817270926192    0.5336169467113749    0.6270319724437495
    0.4468168262793720    0.4445754005044944    0.6174914690647141
    0.5476536548765435    0.4630223559733791    0.6094707071821044
    0.5223820259751277    0.6145104483703397    0.5944072382601546
    0.6238593266475277    0.6044929693905104    0.5852965209818207
    0.4260537398029026    0.6003869008920436    0.5785867220614653
    0.5064345020544669    0.3908910847316582    0.5608981547608116
    0.4030683974946876    0.5099460869265758    0.5623077104018489
    0.6212061470353799    0.5121518123002975    0.5619314270163873
    0.5976914855505147    0.4238565921571429    0.5348117432904554
    0.4149098019776989    0.4186775312832637    0.5286088174456295
    0.5732226264558312    0.6563009960065936    0.5205671978848548
    0.5608531782528891    0.3447939082709025    0.4935888220910105
    0.4783538353350741    0.6334522930007179    0.5028568080881664
    0.4622211273552946    0.3508500548570317    0.4801536837939632
    0.4032875404806968    0.5704988262069219    0.4878480302778423
    0.6264054954795255    0.5784370565612412    0.4908615526243911
    0.3645293109648666    0.4838066449356886    0.4752246982746005
    0.6352532267238158    0.4870042083035838    0.4683976110914999
    0.5511879806544128    0.6152503009995379    0.4359493988007667
    0.6209733323749866    0.3986943911464365    0.4406908978076736
    0.6145356733895467    0.5525760275605071    0.3968231245823399
    0.4270356095237287    0.4240094848194584    0.4298212214524781
    0.5237613108943641    0.3884527933099970    0.4118837596619659
    0.4532614121802911    0.6075443667519610    0.4115792717101204
    0.4253360472166525    0.5166797646418493    0.4045408307145139
    0.5800134680488426    0.4650709954259254    0.3849259022748248
    0.5175739845154987    0.5416547922163586    0.3783010717893013
    0.4843178741699771    0.4552158406751829    0.3567216568906685
