Au
 1.0000000000000000
    29.1170353790000007    0.0000000000000000    0.0000000000000000
     0.0000000000000000   29.9487300959999985    0.0000000000000000
     0.0000000000000000    0.0000000000000000   30.4617117509999993
 Au 
  42
Cartesian
 15.0167199999999994 13.2074400000000001 20.0242100000000001
 15.0281300000000009 15.9162499999999998 20.3675299999999986
 12.6181000000000001 17.2309799999999989 20.5241900000000008
 12.6211099999999998 14.5246399999999998 20.1096000000000004
 17.1136300000000006 17.2509000000000015 19.2237800000000014
 16.8752600000000008 14.5891800000000007 18.5797600000000003
 14.6497700000000002 18.4240199999999987 19.1558099999999989
 13.0963399999999996 12.3721300000000003 18.2733400000000010
 10.5911200000000001 13.4773300000000003 18.5942800000000013
 10.7599900000000002 16.1779599999999988 18.8069500000000005
 15.7363400000000002 12.3299000000000003 17.4720799999999983
 12.0093200000000007 18.5832300000000004 18.2128499999999995
 18.1049800000000012 16.3251199999999983 16.8262700000000009
 17.7250200000000007 13.6249199999999995 16.1332599999999999
 16.3322800000000008 18.4291699999999992 16.8536000000000001
 13.7833900000000007 11.2271599999999996 15.8825000000000003
 14.0477200000000000 19.9128000000000007 16.9460900000000017
 11.2951999999999995 12.3866499999999995 16.1775500000000001
 10.1552100000000003 14.8908699999999996 16.2615400000000001
 10.0135100000000001 17.5998400000000004 16.6061499999999995
 16.3721899999999998 11.5542499999999997 14.9134899999999995
 12.2136399999999998 18.6346600000000002 15.3651199999999992
 17.9666899999999998 13.1957400000000007 13.3349200000000003
 19.0246400000000015 15.3933499999999999 14.4889200000000002
 17.2039100000000005 17.4288899999999991 14.4037799999999994
 14.4725699999999993 10.4492200000000004 13.3084399999999992
 14.8410799999999998 18.8077700000000014 14.5322700000000005
 11.8666900000000002 11.2114300000000000 13.8339099999999995
 10.8382000000000005 16.5296100000000017 14.1600099999999998
 17.6501100000000015 15.6959300000000006 12.1623500000000000
 10.8528199999999995 13.8048500000000001 13.8430000000000000
 15.5747300000000006 17.5855999999999995 12.2016200000000001
 12.8754299999999997 17.8210300000000004 12.8601899999999993
 12.5466400000000000 10.0143599999999999 11.4272299999999998
 16.8493800000000000 11.0557599999999994 12.1652199999999997
 16.6326299999999989 13.4587000000000003 10.8419799999999995
 12.1318000000000001 12.7399100000000001 11.5431000000000008
 13.5999499999999998 16.9776500000000006 10.3527799999999992
 16.0957599999999985 15.9596000000000000  9.9583300000000001
 11.9290699999999994 15.4093499999999999 11.8755900000000008
 14.5995600000000003 11.6552399999999992 10.6754200000000008
 13.9342000000000006 14.2542399999999994 10.1784599999999994
