Au
 1.0000000000000000
    27.8252127730000005    0.0000000000000000    0.0000000000000000
     0.0000000000000000   28.2083823729999992    0.0000000000000000
     0.0000000000000000    0.0000000000000000   28.4189704240000012
 Au 
  31
Cartesian
 12.3436500000000002 16.1354100000000003 18.4085500000000017
 14.4662900000000008 14.4195499999999992 18.2331199999999995
 13.9377200000000006 11.7597799999999992 17.8969999999999985
 11.8631499999999992 13.5529399999999995 17.6555399999999985
 16.8584899999999998 15.3956599999999995 17.3718199999999996
 14.6492500000000003 17.0089199999999998 17.1003200000000000
 16.2720400000000005 12.7596000000000007 16.8357600000000005
 12.1670999999999996 18.0839500000000015 16.5067300000000010
 10.7870100000000004 15.7354000000000003 16.1197799999999987
 12.0474700000000006 11.3743099999999995 15.9519300000000008
  9.9748900000000003 13.1641399999999997 15.7056799999999992
 14.7746499999999994 10.8096700000000006 15.4756900000000002
 16.5678100000000015 16.9510800000000010 15.1442899999999998
 17.6822799999999987 14.3149099999999994 14.9991500000000002
 14.1127500000000001 18.1982800000000005 14.6185200000000002
 17.1423200000000016 11.7023499999999991 14.4474699999999991
 11.4864099999999993 17.3699399999999997 13.9757800000000003
 10.3093400000000006 14.8216000000000001 13.5509400000000007
 12.8281500000000008 10.0004799999999996 13.7278699999999994
 11.0413399999999999 12.1355900000000005 13.4086999999999996
 17.8233899999999998 15.9914000000000005 12.8629200000000008
 16.0243700000000011 18.0709200000000010 12.6763100000000009
 15.0606500000000008 11.3171900000000001 12.7163199999999996
 16.6804099999999984 13.5331299999999999 12.4400700000000004
 13.4503299999999992 17.5907899999999984 11.9882799999999996
 11.0093800000000002 16.4295499999999990 11.4871999999999996
 12.6584699999999994 11.2934599999999996 11.3288700000000002
 15.6277799999999996 15.8015899999999991 11.1908300000000001
 14.4061500000000002 13.3407099999999996 10.9056200000000008
 11.5365900000000003 13.7597699999999996 11.2364300000000004
 13.1925699999999999 15.6373400000000000 10.0351800000000004
