Au
 1.0000000000000000
    28.8247478010000009    0.0000000000000000    0.0000000000000000
     0.0000000000000000   28.0699860580000013    0.0000000000000000
     0.0000000000000000    0.0000000000000000   28.3048378109999987
 Au 
  31
Cartesian
 14.2791099999999993 14.1075199999999992 18.3392000000000017
 16.9862000000000002 13.7588100000000004 18.1479900000000001
 12.6986200000000000 11.9137900000000005 17.9235399999999991
 13.2393000000000001 16.6018499999999989 17.6971400000000010
 11.7544400000000007 14.3774099999999994 17.1716699999999989
 15.3885400000000008 11.6306200000000004 17.5233199999999982
 15.9138999999999999 16.1682200000000016 17.3922300000000014
 17.9895999999999994 15.0332899999999992 15.9349900000000009
 17.6738900000000001 12.2568500000000000 15.9670400000000008
 11.2827099999999998 12.1465499999999995 15.5847700000000007
 13.5113000000000003 10.4660799999999998 15.7484999999999999
 11.8877600000000001 16.5745700000000014 15.3098799999999997
 10.0268499999999996 14.5170600000000007 15.0577000000000005
 17.1775100000000016 17.5953499999999998 15.4322599999999994
 14.3927099999999992 17.6527199999999986 15.4422099999999993
 16.1941400000000009 10.0092199999999991 15.4743899999999996
 18.8178799999999988 13.5621399999999994 13.7950099999999996
 15.8042300000000004 18.0521600000000007 13.1123399999999997
 17.2223100000000002 11.3987300000000005 13.3439800000000002
 11.9769500000000004 10.6193100000000005 13.4372699999999998
 10.8352199999999996 15.9160400000000006 12.8505199999999995
 17.5546399999999991 15.9300300000000004 13.2289399999999997
 13.2725000000000009 17.1025600000000004 12.9191400000000005
 14.6737599999999997 10.3005300000000002 13.2107299999999999
 11.1713199999999997 13.1838800000000003 12.8934599999999993
 17.0938699999999990 13.7391100000000002 11.6676099999999998
 15.3762299999999996 15.9570000000000007 11.4473800000000008
 12.7979099999999999 14.8493200000000005 11.3120899999999995
 15.8578600000000005 11.3384099999999997 10.9765400000000000
 13.2124900000000007 12.0694199999999991 11.4635700000000007
 14.8890499999999992 13.7070600000000002 10.0171200000000002
