Au
 1.0000000000000000
    27.6827969769999989    0.0000000000000000    0.0000000000000000
     0.0000000000000000   28.1947679959999995    0.0000000000000000
     0.0000000000000000    0.0000000000000000   27.6374554450000005
 Au 
  31
Cartesian
 15.9420500000000001 14.7704000000000004 17.5940100000000008
 13.6790500000000002 16.2101299999999995 17.0998200000000011
 11.2997499999999995 14.9755299999999991 17.6290300000000002
 13.5820000000000007 13.3795900000000003 17.6521200000000000
 11.1126400000000007 12.2984799999999996 17.0937300000000008
 15.8132000000000001 12.2197099999999992 16.5893100000000011
 13.3068399999999993 11.0381199999999993 16.1179899999999989
 11.4548299999999994 16.6816199999999988 15.4970800000000004
 15.9734200000000008 16.6842800000000011 15.5802999999999994
 10.2067499999999995 14.1008300000000002 15.2182899999999997
 17.3861799999999995 14.2830499999999994 15.3342200000000002
 15.5388599999999997  9.9994300000000003 14.9813600000000005
 13.7238699999999998 18.1976799999999983 15.2096900000000002
 11.0624000000000002 11.5198000000000000 14.4979600000000008
 17.6687100000000008 11.6684900000000003 14.5861599999999996
 13.3570499999999992 10.3240700000000007 13.4032900000000001
  9.9851600000000005 16.0410700000000013 13.2909699999999997
 17.5461999999999989 16.2135700000000007 13.3924800000000008
 12.3536400000000004 17.4558099999999996 12.9637700000000002
 15.1888000000000005 17.5400799999999997 12.9960599999999999
 10.2602200000000003 13.4073700000000002 12.5779300000000003
 15.8926400000000001 11.1468799999999995 12.5027500000000007
 17.4386000000000010 13.5773700000000002 12.6436200000000003
 11.2113999999999994 10.9234100000000005 11.8572799999999994
 11.5416699999999999 15.5303900000000006 11.1099499999999995
 16.0622900000000008 15.5333500000000004 11.1967300000000005
 13.7103300000000008 11.6141199999999998 10.9292899999999999
 13.8142999999999994 17.0097400000000007 10.6940500000000007
 16.0816400000000002 12.8783200000000004 10.3840000000000003
 11.4418399999999991 12.9969699999999992 10.0888200000000001
 13.8157700000000006 14.3507099999999994 10.0255299999999998
