Au38 rank 5
1.0
   28.5293201744831499    0.0000000000000000    0.0000000000000000
    0.0000000000000000   28.6281020328591858    0.0000000000000000
    0.0000000000000000    0.0000000000000000   29.3692223190515627
  Au
  38
Direct
    0.5580659061282571    0.6494866514433613    0.6451601217917691
    0.5223147525120768    0.5597007802393794    0.6582109515110236
    0.5939117508932248    0.4926598597595355    0.6472725795658304
    0.5002282698698003    0.4679172533175808    0.6426735732800377
    0.4309517259435816    0.5376259341343351    0.6320913287998043
    0.4074323234432392    0.4455772155541959    0.6183827553561909
    0.4685663384746924    0.6286153725809760    0.6157227913495903
    0.4792258818270682    0.3822709118493418    0.6054185989701135
    0.5707244486698216    0.4166481962469966    0.5955452554037202
    0.6006824784645717    0.5769656280857953    0.6000502086270857
    0.3804554920496019    0.6055567839843988    0.5868039746702953
    0.3624636177387637    0.5133769001426998    0.5676686512210718
    0.5062271951754643    0.5425282499576631    0.5629010910458456
    0.6191311635969530    0.4933563256584028    0.5566802020406609
    0.5378241220046260    0.3488255992713192    0.5359915333671009
    0.5409961851135846    0.6380740294338294    0.5507559625597068
    0.3701832294646608    0.4214847505732981    0.5347195233030854
    0.4702306065114443    0.4551959064067660    0.5416466930634126
    0.4480038376637024    0.6286900882178363    0.5219760301844512
    0.4435571701698999    0.3623119623966369    0.5173746607894746
    0.5979601490619525    0.4154261061772492    0.5036135492755950
    0.5998155095123584    0.5747481927874597    0.5065304998580556
    0.4481263257241395    0.5297532259668148    0.4875541755903128
    0.3619620843916122    0.5829172659425346    0.4978419675779743
    0.5389555452691907    0.4949026492552667    0.4856752704451635
    0.3461061384139278    0.4917374442897177    0.4749588664869269
    0.6425132612907934    0.4959083624944239    0.4663116719844747
    0.5118177549251802    0.3957180558736145    0.4577079444728061
    0.5211983287678756    0.6099591410206047    0.4623250906382385
    0.4198912637890190    0.4319404232318595    0.4528934959419776
    0.4270841271700944    0.6076384663272226    0.4316502555555324
    0.5813914686225119    0.4423824998136776    0.4116643886266643
    0.5859593935627364    0.5576255794282706    0.4146292510245959
    0.4057496589520374    0.5151117886411014    0.4032478570548532
    0.4866456447273543    0.4612706153277846    0.3927139086224683
    0.4937258846053815    0.5583519863085815    0.3854948270551836
    0.6510516492606128    0.4986329562395412    0.3736610791754155
    0.5567216722661944    0.5011104465993028    0.3406638455645889
