Au38 rank 16
1.0
   29.1899024726338325    0.0000000000000000    0.0000000000000000
    0.0000000000000000   27.7818257371521611    0.0000000000000000
    0.0000000000000000    0.0000000000000000   28.5021671460538002
  Au
  38
Direct
    0.5120562899579197    0.5464329639320529    0.6501033157755844
    0.4727352874799576    0.4554413624575553    0.6426931892947133
    0.5606279076645552    0.4724703126255170    0.6088308689688450
    0.4330885448780033    0.3648390604415438    0.6300248642293945
    0.5776459049692128    0.5699959407470575    0.5841714163059522
    0.4315701312902135    0.5363737814294114    0.6015045598752657
    0.5159169819160588    0.3859492970477883    0.5853179355879706
    0.4916513749713251    0.6117957048969183    0.5798773278015191
    0.6393875001793916    0.4989218013034233    0.5632915633791870
    0.3991850784416752    0.4430464590032487    0.5811352358608506
    0.4859194333739927    0.4722240817186373    0.5366918923738851
    0.5904768877185942    0.4182040227711699    0.5345023217095809
    0.5611025837446529    0.6419365176992512    0.5201421841336485
    0.4367358679433426    0.3630549217377583    0.5332983799347288
    0.4036214969431370    0.6124369845087442    0.5476738732723087
    0.6145915084750221    0.5646240020684599    0.4936802192407996
    0.3763281294031728    0.5189730312664159    0.5260760315656857
    0.5377988611781308    0.4646371659745810    0.4562616135273599
    0.4733254100675791    0.6386990547707819    0.4853106815624256
    0.5221831397837697    0.3649315746239838    0.4905728865985240
    0.6453402712148517    0.4709747810038435    0.4724285441091143
    0.3779548138372267    0.4266914590418251    0.4871960186302600
    0.4770247585811427    0.5369538211990632    0.4681808060569217
    0.6034749093724110    0.3867818967760924    0.4431423162402633
    0.3930796761937977    0.5884090711879877    0.4542045842031301
    0.4442064159027427    0.3734703788870073    0.4379602957207728
    0.3825257164302640    0.4306452275086327    0.3906886623781114
    0.5263834108080917    0.3586819853038473    0.3920091749877526
    0.5503128864278836    0.6007218783154039    0.4324320478712847
    0.4638955573342767    0.6089091733451416    0.3925951263836295
    0.6056577498845782    0.5272316609638174    0.4026652668227300
    0.3436043951418284    0.5061369757807603    0.4380891234569042
    0.6565509608693224    0.4456575562832654    0.3796106746105116
    0.4727280668744130    0.4402387737379216    0.3697002909079160
    0.5653407184238893    0.4457645594309229    0.3577663238277369
    0.6133060801542756    0.3588196380460741    0.3512846841847715
    0.5158237640956714    0.5293548672870820    0.3709575193606381
    0.4192540778600340    0.5225848813380151    0.3792590217752127
