Au
 1.0000000000000000
    28.5293201739999986    0.0000000000000000    0.0000000000000000
     0.0000000000000000   28.6281020330000011    0.0000000000000000
     0.0000000000000000    0.0000000000000000   29.3692223189999986
 Au 
  38
Cartesian
 15.9227200000000000 18.5933899999999994 18.9477399999999996
 14.9027200000000004 16.0231700000000004 19.3300899999999984
 16.9440099999999987 14.1027299999999993 19.0083400000000005
 14.2703199999999999 13.3950300000000002 18.8758899999999983
 12.2962199999999999 15.3924400000000006 18.5652100000000004
 11.6243200000000009 12.7580299999999998 18.1609300000000005
 13.3676999999999992 17.9969099999999997 18.0865499999999990
 13.6687300000000000 10.9425600000000003 17.7806700000000006
 16.2795799999999993 11.9282400000000006 17.4886300000000006
 17.1403199999999991 16.5166800000000009 17.6231499999999990
 10.8543800000000008 17.3375100000000018 17.2355499999999999
 10.3431300000000004 14.6984499999999993 16.6717900000000014
 14.4470500000000008 15.5272400000000008 16.5323700000000002
 17.6623100000000015 14.1242099999999997 16.3466999999999985
 15.3415199999999992  9.9857300000000002 15.7404299999999999
 15.4335400000000007 18.2634399999999992 16.1771899999999995
 10.5629200000000001 12.0679999999999996 15.7039500000000007
 13.4228100000000001 13.0262100000000007 15.9070499999999999
 12.7809399999999993 17.9975899999999989 15.3320399999999992
 12.6524699999999992 10.3712999999999997 15.1926600000000001
 17.0562600000000018 11.8948699999999992 14.7897700000000007
 17.1144999999999996 16.4548699999999997 14.8759200000000007
 12.7748299999999997 15.1647700000000007 14.3294899999999998
 10.3225999999999996 16.6904399999999988 14.6222200000000004
 15.3705599999999993 14.1721900000000005 14.2541899999999995
  9.8745700000000003 14.0785000000000000 13.9492600000000007
 18.3308099999999996 14.1976300000000002 13.6944300000000005
 14.6011900000000008 11.3271200000000007 13.4400899999999996
 14.8687900000000006 17.4608099999999986 13.5794099999999993
 11.9785699999999995 12.3641000000000005 13.2988700000000009
 12.1850699999999996 17.3929100000000005 12.6803799999999995
 16.5885899999999999 12.6637199999999996 12.0899099999999997
 16.7179900000000004 15.9664900000000003 12.1774900000000006
 11.5773899999999994 14.7451100000000004 11.8433200000000003
 13.8850499999999997 13.2055799999999994 11.5327900000000003
 14.0855200000000007 15.9852900000000009 11.3214900000000007
 18.5752899999999990 14.2778299999999998 10.9746799999999993
 15.8852399999999996 14.3474599999999999 10.0072700000000001
