Au
 1.0000000000000000
    28.6044441529999993    0.0000000000000000    0.0000000000000000
     0.0000000000000000   29.7527416699999989    0.0000000000000000
     0.0000000000000000    0.0000000000000000   28.3960214079999993
 Au 
  38
Cartesian
 15.1132500000000007 13.5851500000000005 18.3771300000000011
 15.0858000000000008 16.2083799999999982 17.5139500000000012
 12.7437400000000007 14.6472499999999997 17.5471800000000009
 12.6583299999999994 17.3496500000000005 16.9077699999999993
 17.3818500000000000 17.1791499999999999 16.3685399999999994
 14.9981899999999992 18.2552100000000017 15.5969200000000008
 12.5422300000000000 19.0734099999999991 14.7126699999999992
 17.2643599999999999 14.4596900000000002 16.8333100000000009
 13.5332100000000004 11.9182100000000002 16.7540799999999983
 11.0935299999999994 13.0109999999999992 16.0638599999999983
 16.3611000000000004 11.8161500000000004 16.7355300000000007
 10.5781799999999997 15.6555099999999996 16.1018800000000013
 14.7737700000000007 14.0290999999999997 15.3361900000000002
 10.1693899999999999 18.3718499999999985 16.1365200000000009
 18.3318000000000012 15.4084099999999999 14.4687500000000000
 18.1627499999999991 12.7077000000000009 14.8089499999999994
 14.5271399999999993 18.6476000000000006 12.8489400000000007
 17.0096600000000002 17.7908399999999993 13.7169000000000008
 12.6273400000000002 11.9965399999999995 14.0607699999999998
 14.8921399999999995 10.5911100000000005 14.7053899999999995
 17.6044799999999988 10.0177300000000002 15.1087199999999999
 11.2423400000000004 14.3481600000000000 13.6330700000000000
 16.8530699999999989 11.2812900000000003 12.7827599999999997
 13.4539700000000000 16.1864099999999986 14.2523499999999999
 10.5654900000000005 17.0368299999999984 13.6960499999999996
 10.0630299999999995 19.8486000000000011 13.8319200000000002
 18.0920300000000012 13.6334199999999992 12.2201799999999992
 15.6720600000000001 15.0986999999999991 13.0172399999999993
 12.9370399999999997 13.4028399999999994 11.6684699999999992
 16.2038200000000003 17.3983300000000014 11.0630500000000005
 12.1044699999999992 16.0539600000000000 11.6095199999999998
 14.1507699999999996 10.9416200000000003 12.0565099999999994
 18.5835499999999989 16.3539299999999983 11.9267500000000002
 11.7977100000000004 18.8904299999999985 11.9736600000000006
 15.6400400000000008 12.9320500000000003 10.9517000000000007
 17.1396599999999992 15.0197400000000005  9.9650300000000005
 13.6634300000000000 17.9317899999999995 10.2691900000000000
 14.3905499999999993 15.2783599999999993 10.2717799999999997
