Au38 rank 17
1.0
   27.7666498850292101    0.0000000000000000    0.0000000000000000
    0.0000000000000000   29.5439300660744522    0.0000000000000000
    0.0000000000000000    0.0000000000000000   30.3965081044573111
  Au
  38
Direct
    0.4113066880376888    0.5590624860651450    0.6764893116915096
    0.4874839830160133    0.4278488162087920    0.6262891097060065
    0.4937069976710406    0.5195297992948829    0.6453828095172699
    0.5755758402312519    0.4784701119232259    0.6156014875248709
    0.4029904177795149    0.4795085198718443    0.6289863780615290
    0.4820388271496797    0.6138783365002082    0.6342758573765891
    0.5755310591969813    0.3874143910390248    0.6205747014579353
    0.5648429596510690    0.5697460694345599    0.6032847528142200
    0.4084489135942093    0.4075336802648873    0.5727142395376184
    0.6212227027107573    0.5222747331056528    0.5451869820786265
    0.4175925560263909    0.5622206010152763    0.5849830666423618
    0.6325779628656710    0.4284286628791965    0.5582255150663150
    0.5941163369251240    0.3412167389663918    0.5438881923657325
    0.5054062779704702    0.5118586367129476    0.5473814602295964
    0.5529701182425186    0.6601304974215860    0.5887906765093607
    0.3739654922712000    0.4904034352003066    0.5418524264236144
    0.4891154908679535    0.6099162366355368    0.5395159851421849
    0.4986184210348444    0.3544493850016896    0.5707270014471724
    0.5853738743610010    0.6068027432520945    0.5175430815843509
    0.6683982156113588    0.4712622383714721    0.4849243371511285
    0.4763524512134947    0.4336697167080963    0.5101775098026736
    0.4226140246645478    0.5604255193321586    0.4954222351157366
    0.5560877056115943    0.4710137886530079    0.4798894573442772
    0.4291929282139550    0.3453690648778746    0.5072982329784672
    0.6184660344331657    0.3909193350303019    0.4722127115808963
    0.5259429863613021    0.3512922125129018    0.4802755778574351
    0.6123699259303098    0.5452492784710822    0.4537017067903803
    0.3750187071607265    0.4191213339982693    0.4820917232161948
    0.5146950599776374    0.5716583752367835    0.4595102193613491
    0.3562999876034172    0.5087397879199513    0.4548987846930515
    0.6238561236101297    0.4621470157918217    0.4062046950822785
    0.4523791161461246    0.3862937533910201    0.4275358254680648
    0.4443250388233841    0.5248006410874697    0.4135815051832804
    0.5476114878463941    0.3992193472781136    0.4060732430445305
    0.5406407132178194    0.5160390993334230    0.3923027503017885
    0.3878831792910454    0.4472711428529771    0.3953046768942756
    0.4772478853333696    0.4506667524456075    0.3615133701925727
    0.5714768379399204    0.4485056059761273    0.3321383674119019
