Au38 rank 18
1.0
   29.2204389865837086    0.0000000000000000    0.0000000000000000
    0.0000000000000000   27.7043984233559826    0.0000000000000000
    0.0000000000000000    0.0000000000000000   30.0183232231032733
  Au
  38
Direct
    0.4761262698367084    0.4041772724919898    0.6653327113315874
    0.4216698361872639    0.4769009556490234    0.6331750059643333
    0.5153392898175555    0.4935257014917737    0.6553346373250770
    0.4552842636396025    0.5686945970535074    0.6438196475675033
    0.5667636483208598    0.4091746083162367    0.6455574222389490
    0.4075652752646348    0.3809559288375696    0.6079772370105518
    0.6057966244507530    0.5009720706749419    0.6242165366356159
    0.3942102973850312    0.5504414051971289    0.5757422184259079
    0.5431789898019975    0.5767424770146042    0.6109371721132623
    0.6561123910849308    0.4156964867379477    0.6211585136578804
    0.3577600844046772    0.4570816745247552    0.5655636934713041
    0.4673778632427116    0.6160286681260065    0.5653480980022071
    0.5008477029567422    0.3853080096820766    0.5780407990001023
    0.6584557566682947    0.4734066429152335    0.5479633039806354
    0.6140709806338331    0.5626579472349248    0.5502368157461279
    0.3417273852485759    0.3600914418715869    0.5469948335374527
    0.4488866758745506    0.4734703374887469    0.5364601270060592
    0.5382323240538406    0.4892541940910676    0.5571431938919299
    0.5910962386256898    0.3990372565512248    0.5539043603881814
    0.5539356982035115    0.6377233798060928    0.5389816600862489
    0.4321396458684548    0.3709330026199987    0.5163697914312688
    0.4004640505947590    0.6105691490144953    0.5026503822188181
    0.6558804925736655    0.5301626469246422    0.4740883978458252
    0.3666648821587641    0.5188757903220601    0.4918054764985018
    0.5216059670236299    0.3941518339595188    0.4892175707053388
    0.5964547280332906    0.4524245601394154    0.4763602576563767
    0.3566278607878480    0.4199227878437196    0.4766633364630673
    0.5058649285441483    0.5137674936389398    0.4752716162280388
    0.4899422822189035    0.6175880610046962    0.4739182930735176
    0.5805534731347421    0.5882420753881967    0.4640914116477471
    0.4476867759844289    0.4259112562283922    0.4411142917456764
    0.4269180382621155    0.5611459826957667    0.4277513109659720
    0.6016237913815461    0.5169512484738230    0.4015448690127207
    0.5342500300078412    0.4427039133467732    0.4077745835705031
    0.3761486967704987    0.4806420242113411    0.4080633968893887
    0.5171569128035701    0.5686848106317965    0.3960923118349931
    0.4588131087558136    0.4916489737921124    0.3678041392566858
    0.5437914924466362    0.5015569777918961    0.3320633184464233
