Au38 rank 13
1.0
   28.1807648315015697    0.0000000000000000    0.0000000000000000
    0.0000000000000000   27.4564814055486863    0.0000000000000000
    0.0000000000000000    0.0000000000000000   27.3673522539848548
  Au
  38
Direct
    0.5200670902133971    0.5107130817118031    0.6891592880479948
    0.5040503275664276    0.5979487668382624    0.6404021238664493
    0.4325445361150035    0.5242148059766037    0.6497268414197870
    0.4770936794049840    0.4284847288497485    0.6528657004158676
    0.5770806758866602    0.4429711838223847    0.6444662675479333
    0.5909800409381785    0.5484060111422807    0.6313383411606361
    0.3882219167345078    0.4422736336339488    0.6186028692515170
    0.6496551303357264    0.4800978518151015    0.5883005248898012
    0.4155391649339346    0.6130193498298622    0.6003456485361099
    0.4762217325477950    0.5460584550203815    0.5527663220289296
    0.5336623404496929    0.3670713281722066    0.5976327217823745
    0.5709193551838737    0.6318245494539539    0.5771647453229998
    0.5551889698262856    0.4867052330734648    0.5526743738752892
    0.4712277076473420    0.4586338801820471    0.5100967716785832
    0.3697781425221172    0.5291425599119123    0.5719604958679505
    0.4424939094217584    0.3768462147798122    0.5669890770266988
    0.6077442749848346    0.4003911361033915    0.5412706173926971
    0.6272156913936709    0.5633147610730322    0.5335450797248842
    0.4839699072458378    0.6465043632647139    0.5336032521569656
    0.6556534977723769    0.4747114400872874    0.4893768325546353
    0.3718795139414353    0.4388881304185742    0.5190062464311351
    0.3981227034496179    0.6041473867357261    0.5009949856098884
    0.5235132831838062    0.3689910767031293    0.4964884579331069
    0.3411356137528526    0.5242007944836087    0.4775987337603022
    0.5921083634297080    0.4154792943592989    0.4410806519787376
    0.6295651441095335    0.5556722609895608    0.4338477997548952
    0.5660247328331198    0.6232040951483494    0.4778611225868966
    0.3953341918927109    0.5666535799703382    0.4067166201331285
    0.5302061037141019    0.5265682461799991    0.4651203038781503
    0.4302147545584431    0.3766946483784756    0.4650515222559350
    0.6616812090457740    0.4695842236685636    0.3888657923748011
    0.4051572810704245    0.4662704083249249    0.4236841158123116
    0.4979880018237293    0.4272985458297884    0.4119320591641398
    0.4757535254347302    0.6141332993470071    0.4370224822950707
    0.5665092180815930    0.4861884925112808    0.3722346405504517
    0.5520467965582840    0.5893710584516342    0.3790074570668254
    0.6297366056329529    0.5513460465720814    0.3321920770597778
    0.4753992586119514    0.5224417689656915    0.3781311151949447
