Au38 rank 20
1.0
   28.4748282527483383    0.0000000000000000    0.0000000000000000
    0.0000000000000000   27.9999126731297423    0.0000000000000000
    0.0000000000000000    0.0000000000000000   28.9992016364636740
  Au
  38
Direct
    0.6034041969020482    0.4766595437555010    0.6569250483594025
    0.5097162217729844    0.4560493430020119    0.6305203219853501
    0.5475195533489966    0.5475782663947815    0.6220402794660365
    0.4510507061509191    0.5299569742180463    0.6003162604275677
    0.5864988174694009    0.4148716107259787    0.5843938569455787
    0.4217248002702439    0.4353980263478013    0.5969977990960376
    0.4935307369381967    0.6161927985516825    0.5836002211117578
    0.4965464490090494    0.3843199527067054    0.5597931389119766
    0.3724571964594717    0.5052260454698692    0.5493260717018948
    0.6231092145780349    0.5098171082503088    0.5681014105323027
    0.4178562084426640    0.5899908563801730    0.5300324023101251
    0.5325145879578738    0.4858324420694971    0.5335228739691524
    0.5709886305668074    0.5867177808827019    0.5339548263366189
    0.4062425729174396    0.3749590175786695    0.5246265917285753
    0.5715081352723522    0.3649521889068812    0.5039680408692145
    0.3493419287232714    0.4428237903942658    0.4788460420651999
    0.4894196360842447    0.5441887029048185    0.4677577920347082
    0.6353863201604216    0.4386364294015873    0.5035170651324193
    0.4971417681650366    0.6422151461021048    0.4923933802321370
    0.4822270002123537    0.3550858516236214    0.4671319393371381
    0.4462397233712060    0.4621642560544939    0.4960804056996543
    0.3735067798779103    0.5364681492144937    0.4585594758624006
    0.6173143073328587    0.5288238199337851    0.4715108159363480
    0.4208578380312183    0.6220273480658857    0.4386916323573813
    0.5717108168608802    0.6089150257544194    0.4407233018887908
    0.5274317107433087    0.4555292655875941    0.4420749956138630
    0.4073598970820872    0.5551257393032861    0.3711463980226715
    0.6474760458014301    0.3645811162803386    0.4418982878702831
    0.5700563812893715    0.5296876831003776    0.3843629529347193
    0.3939030669904830    0.3704165125559981    0.4296181472292559
    0.5572793922668868    0.3632205429754996    0.4077753623522471
    0.4959652474352742    0.5939141810242992    0.3829178992352976
    0.4710780036473149    0.4003199415788833    0.3796171980772796
    0.4810842837686268    0.4960804069138404    0.3550411225889089
    0.3962951104133743    0.4620948629885361    0.3948016209994084
    0.6284168706436291    0.4560994727309058    0.4085194950234554
    0.5567224832154627    0.4375912254636232    0.3427053740173648
    0.6333994841575533    0.3784204624484756    0.3477790022023113
