Au38 rank 7
1.0
   28.8757878810265538    0.0000000000000000    0.0000000000000000
    0.0000000000000000   29.7422917573676528    0.0000000000000000
    0.0000000000000000    0.0000000000000000   27.8345928196979600
  Au
  38
Direct
    0.6047604023526750    0.4300405981529473    0.6008737473044246
    0.4871946361396446    0.4812468475799656    0.6408222423491757
    0.5006611317449358    0.5729539601830069    0.6219454341021730
    0.4223775423678587    0.5295332152293183    0.5878272355065308
    0.5759811772770292    0.5150978353623145    0.6236639709537957
    0.5146382301546555    0.3985540263497149    0.6082274890501850
    0.4266047561966818    0.4318189020477196    0.5861208512293935
    0.6271136801593234    0.5019493249386295    0.5369231508444443
    0.5681148793952685    0.3692720363125501    0.5323379376350339
    0.5641128460935931    0.5735152999817910    0.5467261097671344
    0.4711777998179195    0.3671344225130433    0.5269211996722302
    0.4688617523178129    0.5942993486412496    0.5328978541427911
    0.5292065488173672    0.4740274829339640    0.5448881336163413
    0.3547618235496420    0.4798859291252749    0.5450065358738270
    0.6541490698626670    0.4136245992415146    0.5187992973382103
    0.5340480065824699    0.4351665458746670    0.4557257151923932
    0.3822047870284677    0.3959981324754674    0.5061211288829399
    0.4491148271226593    0.4647672264269762    0.4893672786168953
    0.3949854546589587    0.5492517724478322    0.4917662165981424
    0.5361630007362321    0.6223343300126311    0.4680577097361086
    0.6138453041919346    0.5612295449275874    0.4628813998643457
    0.5157759041233281    0.5275732078676194    0.4633929226833728
    0.6102585883075976    0.3763188578523035    0.4406772376707690
    0.4431014760158758    0.6112205730547298    0.4371780324912536
    0.3597568802396469    0.4726965319210498    0.4447213102860686
    0.6340436213508018    0.4705248285070159    0.4431111374208738
    0.5246160211688657    0.3355442004711611    0.4515283326927928
    0.4331172596098604    0.3547269900558773    0.4336759387295751
    0.3443460061258329    0.3857191569519366    0.4151002788551300
    0.4273269680289402    0.5246328503491759    0.4012911759773732
    0.5039424016351921    0.6640140098035647    0.3848962482544451
    0.5896835318729741    0.6165645766443781    0.3866257755721951
    0.5860845112158806    0.4329148503149949    0.3651664012189337
    0.5858188882821854    0.5238375979343137    0.3759591717081927
    0.5036839351748560    0.5724048618918307    0.3697071445679400
    0.4198708042973489    0.4339033641892714    0.3780949755992981
    0.5013433006906771    0.4802603186776210    0.3589830445007876
    0.5027221190317690    0.3879562069222063    0.3726409455378585
