Au38 rank 19
1.0
   29.6138711238498757    0.0000000000000000    0.0000000000000000
    0.0000000000000000   28.5127163919081923    0.0000000000000000
    0.0000000000000000    0.0000000000000000   28.6141333605717989
  Au
  38
Direct
    0.5257448298297174    0.6361624408096940    0.6490391021951962
    0.5078247063671154    0.5361770715094885    0.6443114096302776
    0.4393669066729723    0.6046488240732527    0.6450234091109828
    0.4218964336292687    0.5148942927280903    0.6161994478624743
    0.5772258410208788    0.4841362808824101    0.6056397667647228
    0.5940051809152422    0.5736776696170837    0.6404182788918159
    0.4904194622356835    0.4485025729556222    0.6052824286517570
    0.3944061639638593    0.5915914045569483    0.5631066039559594
    0.5671485411205404    0.6243380790620341    0.5618310482178966
    0.4024560938589531    0.4257745405050944    0.5865844542803541
    0.5564954305611801    0.4054396221575699    0.5542000901266494
    0.6296077665571049    0.5496406934366161    0.5575530600789088
    0.4754459152473220    0.6491756899612550    0.5693001645836396
    0.3657583062003023    0.5018243711082473    0.5400430133530936
    0.6340850626728475    0.4550115132762261    0.5347320994445715
    0.4680510927105671    0.3903488203954387    0.5304275358645794
    0.6210625945675132    0.3681665230114619    0.4952363948832555
    0.4232453783542982    0.6483279087151226    0.4916382439075291
    0.3843083407322525    0.4163463379869448    0.4937874653613181
    0.3791219488590341    0.5670715437416265    0.4704571284837859
    0.5154967826021698    0.6371920589868462    0.4832661348249702
    0.5321212834379264    0.3642459160417849    0.4677722637457809
    0.6613339668756080    0.5229564230154140    0.4726367565948545
    0.5982536060887841    0.5933470448992594    0.4769474915599997
    0.3365577567348083    0.4853301737531394    0.4495153994393895
    0.6334225758774846    0.4406242359823992    0.4352631754397328
    0.4451719597979792    0.3690010184996809    0.4390395060694305
    0.4556632256801919    0.5925216252560754    0.4203474785474745
    0.5994653557027566    0.3534030615727253    0.4015291193973222
    0.5934016402149642    0.5229677082431188    0.4067959627763191
    0.4124040093832947    0.5100940847114573    0.3986029862102233
    0.3740882209551474    0.4177147108776731    0.3951584201609744
    0.5450923642079041    0.6036253425193747    0.3985369565813186
    0.5122087984123702    0.3510905914240887    0.3710830390533105
    0.5546844773097334    0.4379284811285348    0.3831403622752256
    0.5041717532057121    0.5199901360223704    0.3802669974638329
    0.4634288897642634    0.4372487223129480    0.3643882017797293
    0.4226429443075401    0.3541816058124883    0.3445089446594709
