Au38 rank 6
1.0
   29.9378701541115255    0.0000000000000000    0.0000000000000000
    0.0000000000000000   30.0576783423026868    0.0000000000000000
    0.0000000000000000    0.0000000000000000   28.1346436006201124
  Au
  38
Direct
    0.6032795036712353    0.5457930904965802    0.6344868005905492
    0.5233712634500227    0.5921699367918931    0.6162221844066209
    0.5224907595680420    0.5043302935988787    0.6467135849046233
    0.6075822103595678    0.6149643410328046    0.5732173921435211
    0.4538390813781067    0.5331150790644161    0.5909341664654629
    0.5345254817954788    0.6683359260971703    0.5638707656993756
    0.5860568638055041    0.4677457726011510    0.5864181107613018
    0.4941804894624913    0.4489493277598414    0.5760452138836212
    0.4586042908960434    0.6179799605183985    0.5524780353892719
    0.5620371412403140    0.3986554324170861    0.5297313336206549
    0.6449445560633037    0.5325090661616322    0.5474805669833966
    0.3891579662995387    0.5590727244996230    0.5277843432889558
    0.5910037482521392    0.6610803444084724    0.4861489980522717
    0.6325386865602464    0.4540716862308678    0.5011415798632638
    0.4860668606288427    0.5600014330837234    0.4729348229592364
    0.6662659600815415    0.6093450006991155    0.4965260892580536
    0.6152357579223652    0.3736444922656729    0.4534808809430267
    0.3335090565699861    0.5854692808233386    0.4537412277212498
    0.4165952974968945    0.6268970099651706    0.4654867860176455
    0.5370408864143081    0.4859408620356131    0.4920813074388362
    0.5751060377080509    0.5666803112342046    0.4843003753732964
    0.4326474001095412    0.4790928346395215    0.5115042272970060
    0.5322168097708727    0.3318169200936898    0.4700446086795645
    0.4754809700677077    0.4011124474849501    0.4909292131724154
    0.5002611350744012    0.6615222877778981    0.4739478870201788
    0.6580609417104758    0.5276770238925017    0.4493194748915156
    0.3989151129467950    0.5240056575439397    0.4340541400598772
    0.5576911717201755    0.6678630674041098    0.3947725039603607
    0.5382425804778120    0.4113300877338331    0.4171047684977538
    0.6211086378615323    0.4521185684713593    0.4030479742922151
    0.4656150580037529    0.4653988328563501    0.4187323950326785
    0.4744622117232560    0.6331082944691010    0.3844981322171860
    0.3909258169488448    0.5983208994541848    0.3762071379618571
    0.6280607428386401    0.6102110962050646    0.4073322706494243
    0.4658809591593404    0.5423963190706977    0.3651169017114814
    0.5418366106317366    0.4909125377629135    0.3693362751881369
    0.5491224047800671    0.5822283370966598    0.3589395462518868
    0.6251419712741207    0.5315851011700393    0.3576616998625279
