Au38 rank 8
1.0
   29.2705984904360648    0.0000000000000000    0.0000000000000000
    0.0000000000000000   29.3149512993852710    0.0000000000000000
    0.0000000000000000    0.0000000000000000   28.6153120726728645
  Au
  38
Direct
    0.6122796751834244    0.3876733833891546    0.6525091075249739
    0.4316351646372050    0.4209856118209733    0.6159403019139635
    0.5206138802938917    0.4006285150518401    0.6402533000810462
    0.4951376330523042    0.4902986338540958    0.6252772732992923
    0.5864904889765876    0.4680177039987943    0.6101161590253604
    0.4723611158269219    0.5797438243501265    0.6096127217659396
    0.3907611293352709    0.3680086506706366    0.5477611694480141
    0.4025535929110544    0.5124279956604167    0.6058283407379790
    0.5536855854383861    0.5459172986820134    0.5702462028218263
    0.6590894169849050    0.4209312787998435    0.5699085112134353
    0.5775180738633695    0.3704248634522503    0.5647715654716376
    0.3437629522644333    0.4429338471895953    0.5828072486696745
    0.4407471982812421    0.4327600070705328    0.4915888923843543
    0.6175985550483626    0.4946360130618135    0.5205915302622953
    0.4833193047984304    0.3604332708816882    0.5606298551007791
    0.4032239498378871    0.5910393345344745    0.5447718108953209
    0.5037225896818444    0.6107053642929642    0.5238018454430815
    0.4306263966816382    0.6541860611934405    0.4798944173904874
    0.4636478398606506    0.5170612984575895    0.5282345848632772
    0.5287174826333777    0.4469251200934621    0.5279492302281219
    0.6192749520906922    0.4065218395406541    0.4838286697758472
    0.5683831464028440    0.5611547409920868    0.4737514850786699
    0.3622394750569794    0.5109641384637161    0.5151411760421970
    0.5368476949033915    0.3573838024718854    0.4788217779632017
    0.3412299666226359    0.4241790503245690    0.4873887368305855
    0.4449104751631011    0.3358024589053175    0.4747428559657519
    0.4030403506088729    0.5694589368832864    0.4491504396914703
    0.4924006064108597    0.6026939582565456    0.4289815193353275
    0.5015708764779661    0.4888160114751814    0.4458573059578186
    0.5974577557800751    0.4813692735676166    0.4269165641140107
    0.5789869182239021    0.3921329766178441    0.3989749207087004
    0.5476881189461332    0.5473918578531703    0.3782623529297695
    0.3829837660990612    0.4836078302573035    0.4226811700654570
    0.4866581542218012    0.3791053148343004    0.3985802910181950
    0.4515272015123201    0.5327328317979794    0.3748090851835365
    0.3923360209397929    0.3885330035973700    0.4158828551066012
    0.5273253717312024    0.4577153163205700    0.3555080297540749
    0.4346879325152993    0.4439049792279267    0.3514620055386090
