Au38 rank 15
1.0
   28.4586490485034247    0.0000000000000000    0.0000000000000000
    0.0000000000000000   27.5871595706393933    0.0000000000000000
    0.0000000000000000    0.0000000000000000   29.9323878173334634
  Au
  38
Direct
    0.5037919160720205    0.4480071683702382    0.6672450978768071
    0.4693452542598247    0.5382885392206018    0.6427084065736357
    0.4175552957754893    0.4548612214585930    0.6252572507122833
    0.5617723370635407    0.5112226621959236    0.6230167104565859
    0.5337020700601123    0.6062561105440237    0.6167952515044938
    0.5777226458600112    0.4110186113711335    0.6182895377541179
    0.3785452218315185    0.5459054881964851    0.6075392414311721
    0.4857541531376657    0.3842303207004923    0.5985646256269058
    0.4449422678621073    0.6110174057930817    0.5771071256936867
    0.3932914448526219    0.3776062226057550    0.5731444862592299
    0.6313719066916289    0.4750814673018114    0.5654572802631425
    0.6513925319703909    0.3775135850912438    0.5649151602883814
    0.5970842957558198    0.5679396390494916    0.5562345978050220
    0.3615212631941815    0.4705222347098651    0.5484222910372831
    0.4578614057849774    0.5110079228161619    0.5485720988073763
    0.5569074154509964    0.3632946129022468    0.5385435646389574
    0.5258098041389535    0.6348398517344417    0.5291370788366088
    0.5421780953454834    0.4779493954889190    0.5243845719961703
    0.3792696578045711    0.5650386674452756    0.5154673347232126
    0.4642426705896746    0.3625719677176209    0.5115973532880388
    0.4395311607679486    0.6383223694931838    0.4887679327112084
    0.3749075537941581    0.3954854669828969    0.4861197511288605
    0.6197940345120253    0.4175366981764648    0.4866126852000702
    0.6260369776428895    0.5191908380009301    0.4799246438780964
    0.6034347388823204    0.6181114772698572    0.4782734986810860
    0.4677767521822792    0.4688011225765479    0.4672313954625021
    0.3623794635319209    0.4908438950268285    0.4568515817841174
    0.5340842601790069    0.3867171660690193    0.4516706125152329
    0.5144884515073065    0.6115453488786783    0.4371188716665007
    0.4275118118588520    0.5615691351633384    0.4335164329183637
    0.4419159095520496    0.3740187246196314    0.4224952789021711
    0.5798606501559816    0.4644575866914570    0.4146940478594611
    0.5926503409408489    0.5626973012629946    0.4030347674068769
    0.3512570244456016    0.4128716105210916    0.3988229980956762
    0.4200312304259397    0.3915073048225817    0.3339888320559852
    0.5048464806491467    0.4251325632538369    0.3689755460633856
    0.4212912967395067    0.4786392688453648    0.3812607435151075
    0.5055451819481382    0.5258700712281439    0.3892211444733518
