Au38 rank 2
1.0
   28.5682385242716883    0.0000000000000000    0.0000000000000000
    0.0000000000000000   29.0851700630651884    0.0000000000000000
    0.0000000000000000    0.0000000000000000   28.4822415618387375
  Au
  38
Direct
    0.4316308121402353    0.4737161599335076    0.6275630262037928
    0.5185247871898846    0.4369711391492230    0.6428791269524194
    0.6088600823096315    0.4017167748143568    0.6472172972634535
    0.5120907923429502    0.5320542103831168    0.6274482845003683
    0.4254364786750723    0.5690815607205426    0.6364932548225199
    0.5944298088611554    0.4877340471027942    0.6055329883650901
    0.4607146800972847    0.3982334784622881    0.5740771462617107
    0.3900197887057432    0.5932661708775604    0.5481538418325290
    0.4859805638344808    0.6081622422726598    0.5739116513702454
    0.5568172613398735    0.3859871121563413    0.5667333620180339
    0.3760180317106527    0.4389451216756138    0.5546433421471594
    0.5709070961754337    0.5648440787534449    0.5555722564781921
    0.5179290892351361    0.4773842181409518    0.5393748442511412
    0.6478055584189681    0.4199139788474307    0.5605645053985298
    0.3528391280223093    0.5200674245296879    0.5954912582956461
    0.6333957083685212    0.5007756676858376    0.5153358236508454
    0.4423803294608588    0.6580669451668312    0.5040259456061220
    0.4075272440772691    0.3622621850551950    0.5029675721795768
    0.4829365211923659    0.5476621764756432    0.4875003937518054
    0.3542505260422049    0.5176843820400466    0.4995382987831408
    0.5043634983406168    0.3796805470205488    0.4881444323457462
    0.6186370852295211    0.5813980207913494    0.4710198577108378
    0.5925300486482487    0.4194211878628507    0.4799696172037543
    0.3496946477006230    0.4303871219872988    0.4609699875375206
    0.4441713072125396    0.4637409741047248    0.4790809855732298
    0.5366973875531066    0.6279436809165894    0.4930618778813336
    0.4774573345561385    0.6424377490153773    0.4160931616877165
    0.3573212511397393    0.3414105305782854    0.4231396572551492
    0.5946742195325103    0.4985519151885527    0.4256524084823600
    0.3996470391501885    0.5887450054704517    0.4500858009187875
    0.4437630551204556    0.3846030150399598    0.4141136947866122
    0.5281801777620380    0.4305644358323319    0.4092624250378338
    0.5505625541485395    0.5825367099783318    0.4038804230043455
    0.3805914609822014    0.5060439832918249    0.4068821323027084
    0.4589570630746691    0.5551936086786317    0.3815464750485812
    0.3664341970762403    0.4193591119407459    0.3660730132059978
    0.4517936324307060    0.4621147265565593    0.3561380585674950
    0.5355960258427884    0.5059611821167097    0.3498983256632293
