Au38 rank 11
1.0
   27.8379894878602059    0.0000000000000000    0.0000000000000000
    0.0000000000000000   29.4374055035623101    0.0000000000000000
    0.0000000000000000    0.0000000000000000   28.2477599224579876
  Au
  38
Direct
    0.5968310622182419    0.4409275882589274    0.6312550884391528
    0.5270905859717538    0.5078401672875396    0.6464138376052136
    0.4578867294495463    0.5729992570164069    0.6349655917294742
    0.5018310931403298    0.4162371511674523    0.6459144148708779
    0.4335012341197391    0.4807657704678337    0.6219813041017253
    0.6227986421255010    0.5296467710725498    0.6231608713950293
    0.5532988766326343    0.5940146898955052    0.6119578739088706
    0.3896411426414258    0.6386536863636552    0.6203632495975717
    0.6194875783001683    0.3849228769133410    0.5583236714191885
    0.3734031814174795    0.5507095862018302    0.5864486232760282
    0.4848809259824301    0.6621513103072720    0.6007085455404376
    0.4342285593561229    0.3957072315325280    0.5772359728818127
    0.3681779345607408    0.4634044557273043    0.5505761255512706
    0.5346973111416532    0.4466766257004942    0.5520074355937666
    0.5257373894696303    0.3542201446155436    0.5766306528043066
    0.6093316719585791    0.5654553673977520    0.5342361764169410
    0.5315780643888049    0.6254132694540524    0.5221909887182723
    0.6436953491949913    0.4759741825283706    0.5460374961611869
    0.4553100289667791    0.4575572002827244    0.4949211578101294
    0.4314669907358516    0.6139047155046703    0.5350627574300323
    0.4897068730142999    0.5320520564810394    0.5483424661871987
    0.5690435810337044    0.3417890933488900    0.4878098680882949
    0.3778268419444443    0.3809418788086086    0.4977834335298360
    0.4725919434735548    0.3571678990839627    0.4908305320816966
    0.6157114638833387    0.4235540759103283    0.4681943877208930
    0.3615315162847625    0.4611782636168813    0.4504247377024611
    0.5417675270104415    0.4988777541781417    0.4717394309996848
    0.3920997838817958    0.5410819904988152    0.4898346003313856
    0.6427348506640898    0.5147644830358743    0.4566167844102713
    0.4749137852473551    0.5831047369295219    0.4533079265998380
    0.5774760070685960    0.5913092900459498    0.4455695919745983
    0.4337798917174702    0.4043666763764192    0.4137561100725026
    0.5337283916645763    0.3946186797363615    0.4185877601763967
    0.4333424788320648    0.5098650009954784    0.4061650023734155
    0.5888365871631707    0.4667635202625941    0.3853584755559491
    0.5236453521001111    0.5418558353966638    0.3796139472430742
    0.6236909107441055    0.5538095447164142    0.3693375934398959
    0.4937280122109678    0.4545142758888962    0.3560732009574328
