Au38 rank 3
1.0
   28.2159394410191666    0.0000000000000000    0.0000000000000000
    0.0000000000000000   27.8266646622748084    0.0000000000000000
    0.0000000000000000    0.0000000000000000   27.4343001801706308
  Au
  38
Direct
    0.4917495450457913    0.5156694478864470    0.6458561414086199
    0.5779160900838164    0.4709596322691528    0.6388188364479183
    0.4449871210670199    0.4328002788948874    0.6181776727238970
    0.5738061670577618    0.5691347448004815    0.6286608394041261
    0.5311465473268466    0.3864945204034999    0.6134810520068283
    0.4831055635761659    0.6013004748679784    0.5970881238748552
    0.5588649915417851    0.6657560256948442    0.6069692623698195
    0.4199460574826604    0.5243506922727224    0.5787057306501077
    0.5180791879847805    0.4686324416992901    0.5538042088265392
    0.6115054422053688    0.4141124730396867    0.5627734500255120
    0.3925455798768226    0.4376131981288851    0.5347214630093673
    0.5202125314222802    0.6490481180414979    0.5159478597027862
    0.4635245411520986    0.3672479248439404    0.5384343577675744
    0.5567836061346212    0.3352005416460176    0.5319936119810053
    0.6320201612416070    0.5137959045700072    0.5672036974517179
    0.4584715995790256    0.4941943595731049    0.4758936069902738
    0.6092625907765953    0.6088731583632655    0.5421479328990859
    0.4348966036680895    0.5950010207660033    0.5102539403087342
    0.5485534298580564    0.4599763397292301    0.4588650498214987
    0.5375761755897053    0.5491761638797147    0.5004090517624458
    0.5817761825867414    0.6180925782320924    0.4413957480974335
    0.3629681525324774    0.5234837505226316    0.4960915205106585
    0.6464631789654635    0.5472256583083253    0.4731231111608505
    0.6133559139176499    0.3819365418159249    0.4647608125933954
    0.6718967193705309    0.4553579786060834    0.4982385390373957
    0.4212125483976722    0.3949100022305904    0.4511755981689782
    0.4677259934620716    0.5339503552201185    0.3716663900295570
    0.5121052869773591    0.3611011515813954    0.4469062301372479
    0.6367823329576859    0.4661390839370617    0.4059765521319978
    0.3105057190110502    0.5338226243991968    0.4127378553409855
    0.5683403514704729    0.4003702854428725    0.3755691613191273
    0.3895480639251709    0.4778593618876135    0.4037033809242160
    0.3939420410524033    0.5821235460078290    0.4177020589288712
    0.4835536762657119    0.6178526871592619    0.4273650336015211
    0.6294888118662771    0.5594839987958650    0.3759042265439858
    0.5418504125550925    0.5946161283904052    0.3505179438746645
    0.4777249796697757    0.4358642513115004    0.3816174656157331
    0.5557710358731915    0.4952767051104488    0.3510743665006017
