Au38 rank 12
1.0
   28.7184651811919416    0.0000000000000000    0.0000000000000000
    0.0000000000000000   27.5849408803451475    0.0000000000000000
    0.0000000000000000    0.0000000000000000   28.8933189450336947
  Au
  38
Direct
    0.4156290385907261    0.5916914689765983    0.6569214427909194
    0.4732467234411661    0.5124897653434018    0.6470279513194030
    0.5655061793122033    0.5375069957884591    0.6256252320100482
    0.5357396087051469    0.4404492942362718    0.6239126323884864
    0.4444895454373523    0.4332551724050431    0.5929695426855554
    0.6278525120988296    0.4638223338434196    0.6438494569161792
    0.6084413863537023    0.4108680776119331    0.5658159593761224
    0.4944537632305236    0.6000521676060619    0.6022581103168037
    0.3912438034868821    0.5187309910480457    0.5959990032455971
    0.4049401907432086    0.6167774052816530    0.5659725848071681
    0.6301956162046171    0.5098416821231800    0.5585045543108639
    0.5705021327440035    0.5896384875028750    0.5439130736441471
    0.5030566184327122    0.5063308330150285    0.5477848707719155
    0.5166963537030071    0.3826258872173686    0.5485161511926385
    0.4247702742913856    0.3685734486022336    0.5250059757625607
    0.4882984927617781    0.6326949935452068    0.5128388552027170
    0.3786885481124683    0.4549254320928118    0.5239652746087720
    0.3516972005414700    0.5517777761266199    0.5155940136259953
    0.6524182148930942    0.4485545918103121    0.4868780790652180
    0.5845393083733590    0.3761906554716980    0.4816236244766648
    0.4015733866094718    0.6237334940634393    0.4724083432189211
    0.6130737657615138    0.5408590068569978    0.4709361841675883
    0.4435716547117369    0.5255520859568510    0.4762529941089096
    0.5243352082928233    0.4770155669312999    0.4604055758312238
    0.5663570296787958    0.6263730812143489    0.4566456362148258
    0.4918199212386612    0.3677141004642691    0.4575819911099555
    0.4049822635515984    0.4086060176786045    0.4402470594104512
    0.3540073715728421    0.4932295873617467    0.4383301383130127
    0.4807846171448887    0.6124178637833455    0.4180946544638346
    0.6524076166469223    0.3807287306153693    0.4147947801141973
    0.3975437669347546    0.5684921371527828    0.3940607184426754
    0.6062506835271335    0.4679551072902087    0.4039377808425709
    0.5567127667082094    0.5537618995893236    0.3930005790482723
    0.5595020949749727    0.3802883555369854    0.3879275915243812
    0.4213522512900040    0.4753979240773130    0.3700454060393725
    0.4652570925030951    0.3873552939322422    0.3684445178155874
    0.5206959253319098    0.4678194301408024    0.3588518109091580
    0.4764906227016286    0.5530222453835782    0.3404038899817657
