Au38 rank 9
1.0
   27.2971961546762323    0.0000000000000000    0.0000000000000000
    0.0000000000000000   27.6953954668686606    0.0000000000000000
    0.0000000000000000    0.0000000000000000   27.8818784747353767
  Au
  38
Direct
    0.4799247683676479    0.5581167536338825    0.6757761798744496
    0.4891547831335302    0.6557509801693273    0.6437957199922530
    0.5244210791362771    0.4857065257721107    0.6188925993590656
    0.4659394870292154    0.4051648507830940    0.5985194071118656
    0.4232108935128077    0.4952094566231890    0.6225941595234891
    0.5430662671030381    0.5829589703688951    0.6017085129082237
    0.4303408620689563    0.5911180075446938    0.5934831598642223
    0.5581050781883056    0.4175947205647825    0.5542481980616714
    0.3723155915419657    0.4325657018819779    0.5663584947055706
    0.5941178001280286    0.5140233590582273    0.5511618349567639
    0.4950108154758461    0.6543403346092799    0.5456358072790021
    0.4938829424588096    0.3480537262736020    0.5201945289742524
    0.4576094498818554    0.4541262711741993    0.5127317825872930
    0.4929765800579882    0.5482208632395672    0.5155207898571122
    0.3760072157944072    0.5294919839640161    0.5385800013185588
    0.5799528828700042    0.6063614608916901    0.5118915997318894
    0.5662963115060751    0.3765575465058480    0.4584714647278299
    0.3990162580579489    0.3674123301208632    0.4962500335448193
    0.4141534032598987    0.6134336368446540    0.4948942574080943
    0.6333484069609399    0.4428555068882590    0.4939815585982032
    0.3526296201500680    0.4555365501228374    0.4716752016195813
    0.6304215617633522    0.5359416329532991    0.4582705234953125
    0.4704678955686682    0.3557117630800936    0.4228786578730209
    0.5396617019363518    0.4780424830617765    0.4601367860455618
    0.5961519357698895    0.6215597491112259    0.4177758047965354
    0.6114095383634971    0.5437152536208483    0.3594157728700334
    0.3534693580536887    0.5524211361454258    0.4447276911759775
    0.4503923184181173    0.5085934901195541    0.4308379262908190
    0.5023511685589639    0.6369339244411452    0.4487392117056042
    0.6137812649482702    0.4516832536122152    0.3965267137983020
    0.3775337328742460    0.3875637802843105    0.4020607083957454
    0.3661649905701954    0.4828559577276049    0.3750492031316675
    0.5413465121267576    0.3900756223846280    0.3640596714946192
    0.4255506739103867    0.6023864687485916    0.3948773613510468
    0.5200511116273667    0.5882295203619975    0.3601590811804907
    0.4444759992223218    0.5282838498533379    0.3306620798517819
    0.4518161422522805    0.4294577963053837    0.3511302987912444
    0.5342529313784434    0.4858918777262320    0.3382902168619387
