Au38 rank 10
1.0
   28.3279602426625843    0.0000000000000000    0.0000000000000000
    0.0000000000000000   28.9827122590025468    0.0000000000000000
    0.0000000000000000    0.0000000000000000   28.9088447535842334
  Au
  38
Direct
    0.4927849646699066    0.5684907698842420    0.6600563775984065
    0.4994998754741911    0.4725505536426930    0.6423123406307099
    0.4134297171502155    0.5151325170382317    0.6407220493806208
    0.4226054505687808    0.4277522902073375    0.5988401051828417
    0.5068380721974874    0.3847256143355607    0.6010036965987511
    0.5741880011639169    0.5350550005389468    0.6208953697308996
    0.5954564572892176    0.3457024887827163    0.5967226676781602
    0.4291203167685810    0.5974139229890132    0.5928868253605920
    0.5877727480745533    0.4361278359251435    0.6235019666704568
    0.3535164941595281    0.4912793458892596    0.5701749963984434
    0.5246871801350746    0.6074079887955488    0.5765619588269282
    0.6438976135213905    0.4897944482043203    0.5666384918599141
    0.4498962189881055    0.5121105647095987    0.5456826970274681
    0.3601311926047285    0.4068562297507728    0.5271431360694336
    0.3715002202608296    0.5701122305725310    0.5197027066056538
    0.5411546112471429    0.4778750455531594    0.5474043655226104
    0.4436220133731070    0.3598691028483549    0.5319560573417849
    0.5979496380660789    0.5646467918867353    0.5300625534130603
    0.5416488522244808    0.3470290946132628    0.5166499785785617
    0.4585007516311597    0.6127028447314604    0.5037662034885012
    0.6153066780916725    0.4078799641925344    0.5256255053851204
    0.3613645817672627    0.4861470281529146    0.4729427694355923
    0.5103142394641212    0.5286623765823181    0.4706163795817948
    0.5520422212703311    0.6391424545504184    0.4905860761097552
    0.4760972339579279    0.4409309958163253    0.4882333536491337
    0.6159285315912255    0.4866510897758139    0.4732807981693424
    0.3989901717588467    0.3998807606400800    0.4405291892024355
    0.4156037747708655    0.5577527912640592    0.4351673776044207
    0.4835460825671052    0.3514572732659212    0.4421152570338069
    0.5645766014822990    0.4082911197387321    0.4431805397928497
    0.5978938454696929    0.5703079474806824    0.4338460068159563
    0.4951313253742318    0.6085640500971720    0.4146262040708123
    0.3971632346830091    0.4771499358284491    0.3857497185006816
    0.5775958669422816    0.6573749213234815    0.4012800729263942
    0.5635936588770825    0.4888306860887060    0.3916925727728670
    0.4843717549075622    0.4326518007735439    0.3900370953277213
    0.4769238759607817    0.5261010613786753    0.3655253542442325
    0.5573678408572150    0.5760423480672847    0.3463220978026825
