Au38 rank 14
1.0
   28.7217521997552794    0.0000000000000000    0.0000000000000000
    0.0000000000000000   27.8236616415549705    0.0000000000000000
    0.0000000000000000    0.0000000000000000   29.0542773748331342
  Au
  38
Direct
    0.4715391255877696    0.5289029706474583    0.6508393761500560
    0.5660777024109132    0.5300995682620605    0.6305333061650307
    0.6120892063796260    0.4461995842165511    0.6155419176250724
    0.5191082327878394    0.4417649670348573    0.6373152318324932
    0.4252620033827362    0.6192030407744362    0.6583424427501384
    0.4239360718471214    0.4509276541728283    0.6141998819921529
    0.5134624218345866    0.6152590918205310    0.6243846183134659
    0.4695803992334023    0.3653608522175851    0.5969878728425767
    0.3859868297256179    0.5448059391053155    0.6083642301793522
    0.5969153347014609    0.6080913845256554    0.5801367623131541
    0.5628748797728695    0.3745906313144887    0.5726182251111021
    0.4940122280773916    0.4436532102403872    0.5407418529355106
    0.6361228726141610    0.5215577554829254    0.5587410057188699
    0.3541262712939567    0.4709542891145615    0.5540209552251888
    0.4361632592674145    0.6192390186008809    0.5629310681408048
    0.6336035063211124    0.4273481556960676    0.5240923974219572
    0.4079736884588324    0.3940691822693174    0.5271293852250447
    0.5258331088137702    0.6368399096359182    0.5239130952427857
    0.4925938187097816    0.3481956110927693    0.5036538065648232
    0.5011690113715049    0.5412089279295239    0.5526977553332744
    0.5599369434011774    0.4926416114254983    0.4932857459717940
    0.3823415748544436    0.5543279162957431    0.5124682646909812
    0.6076413252750693    0.5884420947323584    0.4885617115784462
    0.5856867676681866    0.3543613534450000    0.4834242255140855
    0.4675211963191033    0.5004948477295247    0.4696325306624110
    0.6535690075443359    0.5043760734929128    0.4651144840698331
    0.3762347720894337    0.4617287532222953    0.4630535569884601
    0.4522918818532546    0.6087073924005659    0.4693406547005883
    0.4355235386200060    0.3850032140510537    0.4362634786595990
    0.5392470499083811    0.6190597759471687    0.4306204115527795
    0.6012749866393592    0.4316798028936077    0.4255602619346138
    0.5293541948146344    0.3662764787097794    0.4106469294888538
    0.5817737446397976    0.5328605691633124    0.4065127593409633
    0.3951584025094257    0.5494848674221278    0.4191984998888070
    0.4870247627799882    0.5508678372940966    0.3880025503980725
    0.4301176110022061    0.4666730729697143    0.3811083657403571
    0.5262818780896997    0.4588147531556206    0.3732908168763477
    0.4662838926183656    0.3839146919533399    0.3441993723442913
