Au38 rank 4
1.0
   29.0627747578680449    0.0000000000000000    0.0000000000000000
    0.0000000000000000   28.8419286692146990    0.0000000000000000
    0.0000000000000000    0.0000000000000000   29.7380517658368682
  Au
  38
Direct
    0.5393902368542088    0.5097796476324133    0.6640803099417220
    0.4506452071748254    0.5469105112092393    0.6560821156049140
    0.5519421936714294    0.4155491599795882    0.6587005769385290
    0.4652798792144245    0.4516979382898724    0.6466794520010116
    0.6120502924985588    0.5632956555853145    0.6372318460060024
    0.5245770357615026    0.5972514923544090    0.6239201861619341
    0.6142161372710426    0.4698414825338414    0.6153778141284635
    0.3987447282735046    0.5023894565226906    0.5919498825591090
    0.4111355215142194    0.4071589919842296    0.5851802432642246
    0.5023349291351656    0.3832605103368888    0.5867675592019725
    0.4395444571300283    0.5920927142480830    0.5747756472521059
    0.4970065721005201    0.5096331514160013    0.5722916872763902
    0.5992432500751143    0.3762371855048502    0.5896270746350003
    0.5948282515168971    0.6149663534671087    0.5619085525444067
    0.5083690192380169    0.6541717327535966    0.5517528716737832
    0.6480226720271733    0.5329090944355902    0.5552503926157399
    0.6548224906589920    0.4385924350509560    0.5373535685439008
    0.3790412146699148    0.4527061969805447    0.5134011733582532
    0.3867661704607291    0.5513270770245609    0.5111533449716043
    0.5672759172940156    0.4778087952257328    0.5233543620443428
    0.4581923543422669    0.3944578123566866    0.5051470761232548
    0.5497345869940874    0.3667704242077828    0.5090935292304598
    0.6452945737438539    0.3472633801264272    0.5127868909125934
    0.4616218599903403    0.6082004309927131    0.4858260656228222
    0.4930375954946120    0.5135946431429204    0.4809208330368981
    0.6466301758844293    0.5967360913130525    0.4875579535197554
    0.5561878373625189    0.6268887845738106    0.4764130995780212
    0.6434812658815683    0.5038743751180083    0.4653668620706082
    0.3422607962438206    0.5019293152528536    0.4437978104472599
    0.4273041153017623    0.4502162204282389    0.4348950244072363
    0.6130241546140163    0.4123356228919513    0.4542058141991387
    0.5189739787574573    0.4228415660682688    0.4401740040014645
    0.6012234669943980    0.5719526926600206    0.4118042999364838
    0.4216150547109808    0.5475189641806608    0.4234324964516100
    0.5856010618134970    0.4776131961110290    0.3953563276279213
    0.5073255050769762    0.5861399950419041    0.4072667638955046
    0.4918801403650231    0.4937622953716100    0.3821226646136568
    0.5556180911618267    0.5444814263981176    0.3351923391059805
