Au38 rank 1
1.0
   29.6324927463349610    0.0000000000000000    0.0000000000000000
    0.0000000000000000   29.0014391553915232    0.0000000000000000
    0.0000000000000000    0.0000000000000000   27.8646307736263310
  Au
  38
Direct
    0.4818364882321127    0.5018210770218677    0.6312257266842055
    0.4216781446996994    0.5671287797540000    0.5935764371118686
    0.6635222796181133    0.5427941007669816    0.6414567772273654
    0.3932724832451034    0.4807229153359813    0.6224024000485443
    0.5712650093492924    0.5214017177879076    0.6374430411562479
    0.5123899380439579    0.5865651300685283    0.6005100272394793
    0.6354162950754120    0.4521428046775571    0.6277503304842834
    0.5447299823849597    0.4294855524148814    0.6207561260376310
    0.4551513968325194    0.4122332546950683    0.6020624754108695
    0.4991288063165660    0.5508818453321145    0.4990751880846765
    0.6080911902913467    0.6007139538832331    0.5926678351156247
    0.3715978305115306    0.6085834451181266    0.5208773628730021
    0.3554011665159372    0.5178611166462151    0.5414473257702157
    0.5495378444847213    0.6530311189199369    0.5421192202973972
    0.6319255762767356    0.5155484266676438    0.5515266557221596
    0.3770727795252665    0.4229225728787578    0.5459529535279523
    0.6001738489459978    0.4248696550325509    0.5395549925291956
    0.5208182622123901    0.3698628688134170    0.5431712423158929
    0.4301337538568439    0.3465639041845460    0.5343943049953871
    0.5112636184169453    0.4654591927978815    0.5314269833985943
    0.4342398085102168    0.4871905040151525    0.4832624286145990
    0.5908541238591346    0.5818666204426632    0.4939512678218178
    0.4584695237385406    0.6352332022773354    0.5334428879687507
    0.4844348898825411    0.3436815846426837    0.4540158620025336
    0.4054831961586082    0.3949594910164013    0.4514035546467597
    0.3383822254124789    0.4584929623788406    0.4638110849058520
    0.5954973294537343    0.4906063415066771    0.4656562537111802
    0.3594160593777890    0.5486788466457457    0.4454161362512874
    0.5169338580140488    0.6349908732756794    0.4518777346409502
    0.4810337751754952    0.5102250555596201    0.3598874585659669
    0.5555453897199405    0.4041275642283612    0.4554448180408812
    0.4228394533040423    0.6224770701425386    0.4400409038050057
    0.4785442124656748    0.4205695512742125    0.3961087907589381
    0.5530698745377982    0.5554895443531987    0.4070351641233768
    0.3984231241018260    0.4716019014944889    0.3898123818229164
    0.5591188688739572    0.4643990071669694    0.3798675243903017
    0.4835601165795584    0.6057894827695831    0.3665192591011155
    0.4024504157732869    0.5617409955033821    0.3618568319488197
