Au
 1.0000000000000000
    29.2644444919999991    0.0000000000000000    0.0000000000000000
     0.0000000000000000   31.2680013879999983    0.0000000000000000
     0.0000000000000000    0.0000000000000000   29.5169063370000018
 Au 
  43
Cartesian
 13.6081199999999995 13.2066999999999997 19.5641199999999991
 13.9666499999999996 15.6581899999999994 18.3589300000000009
 15.8840199999999996 13.5401199999999999 18.0050999999999988
 13.9886300000000006 11.5558700000000005 17.3831799999999994
 16.5390200000000007 16.1565800000000017 17.3065399999999983
 12.1992899999999995 13.7549700000000001 17.2256800000000005
 14.4086300000000005 17.9550200000000011 16.9212699999999998
 17.0206100000000013 18.7084900000000012 16.4557299999999991
 16.5407100000000007 11.5631799999999991 16.1493700000000011
 12.2112099999999995 16.3803500000000000 16.2378900000000002
 17.7904000000000018 14.0254399999999997 16.0698399999999992
 14.5360099999999992 14.5495699999999992 15.6996000000000002
 18.2379299999999986 16.6079000000000008 15.1580800000000000
 14.5015099999999997 10.0769300000000008 15.1187799999999992
 12.4758800000000001 11.9633800000000008 15.0985399999999998
 15.0183000000000000 20.1695199999999986 15.2578899999999997
 12.5541900000000002 18.8256699999999988 15.0292600000000007
 11.0990599999999997 14.3488000000000007 14.7587399999999995
 18.6689399999999992 11.8690700000000007 14.5330600000000008
 18.9479399999999991 14.4152199999999997 13.5140100000000007
 10.9625199999999996 16.9368200000000009 13.7526100000000007
 12.8911400000000000 21.2796999999999983 13.8408300000000004
 16.8674099999999996 18.6851400000000005 13.6991499999999995
 13.8332599999999992 16.5427800000000005 13.7721699999999991
 16.3933199999999992 10.8532399999999996 13.3234899999999996
 16.2194199999999995 15.1347299999999994 13.6749100000000006
 13.7727699999999995 13.8535400000000006 13.1241500000000002
 11.2126099999999997 12.4116900000000001 12.7196099999999994
 13.7066900000000000 11.0599100000000004 12.6803200000000000
 14.3543900000000004 19.2478799999999985 12.6823999999999995
 18.4494900000000008 16.8790399999999998 12.3751599999999993
 11.4859100000000005 19.4080000000000013 12.4306000000000001
 10.0139700000000005 14.8781199999999991 12.2573000000000008
 18.2245899999999992 12.3325600000000009 11.8185300000000009
 15.8132900000000003 17.1948100000000004 11.5686000000000000
 15.5784599999999998 12.4900400000000005 11.1523699999999995
 10.2853999999999992 17.4002899999999983 11.0590799999999998
 13.0637799999999995 17.3725600000000000 11.0967599999999997
 17.1990200000000009 14.7660000000000000 11.0581700000000005
 12.9135100000000005 12.7577099999999994 10.5323300000000000
 10.1617300000000004 13.0055200000000006 10.2297499999999992
 14.4956099999999992 15.0490499999999994 10.4802700000000009
 11.7481799999999996 15.2510100000000008 10.0285100000000007
