Au40 rank 7
1.0
   28.3507409199439593    0.0000000000000000    0.0000000000000000
    0.0000000000000000   30.6532700582983892    0.0000000000000000
    0.0000000000000000    0.0000000000000000   27.0418738837633938
  Au
  40
Direct
    0.6146300951446162    0.4299745448153984    0.6246917118064634
    0.5171691179365324    0.4439613923083936    0.6208736994548600
    0.5560806784374707    0.3601674507766282    0.6055786530356256
    0.4802925466345727    0.5268908542776360    0.6206964804646318
    0.3872946322122670    0.5382072254670318    0.5908149561078672
    0.5801440637919456    0.5140556509327360    0.6299901716275316
    0.4296765456223648    0.4600690562858786    0.5769699189595568
    0.5423729871900717    0.5964472457206654    0.6124543569141477
    0.4496520329644857    0.6049961541496204    0.5797890816206192
    0.4784118577364332    0.3872464377520405    0.5507881409498679
    0.6008411365567198    0.3994615181378092    0.5273081991124321
    0.6287896491542440    0.5722161484814980    0.5693948930659714
    0.5083044260566986    0.6738373371760974    0.5685126871440009
    0.5347219112332440    0.3226141858812022    0.5166486279305021
    0.5487866328804764    0.5228058577564964    0.5315921145538640
    0.3663467063818691    0.4937689865189240    0.5060703117107070
    0.3887553080342672    0.5827128933224969    0.5003334529843801
    0.6024295014129705    0.6589985861398314    0.5727099048329638
    0.4016088070559048    0.4100737869940069    0.4955438992211821
    0.6377881459945556    0.4824735852627283    0.5469072385216912
    0.4581118982950894    0.6462638840004329    0.4869135997342567
    0.5554237523273621    0.6678042518784834    0.4806024198417336
    0.6455560173247006    0.6295789351326336    0.4894963014868182
    0.3748250252751338    0.3608935925645615    0.4135239562822339
    0.4840933800565320    0.4680903586956808    0.4875743913380105
    0.6363463069279008    0.5423833613808332    0.4714547770260905
    0.4254087542074961    0.5945466711059206    0.4026946708882136
    0.4828602671864430    0.5563195131359963    0.4740217199922344
    0.4562973317425120    0.3376840876195736    0.4617104895677423
    0.5904408207353554    0.6045030851418270    0.4124531231833651
    0.6027583426948858    0.4586811122735779    0.4527592453417751
    0.3531841874965094    0.5381739508758541    0.4182569376741490
    0.5360547783826475    0.3931722132248305    0.4503781774309062
    0.5051502421005855    0.6452500471453834    0.3984678806988252
    0.3600961639142989    0.4500644475334591    0.4131301358060431
    0.6026203187141127    0.5208725542052213    0.3790841216163071
    0.4364947360348315    0.5036134959707188    0.3817308649331015
    0.5133404741556711    0.5577124723038817    0.3718021419847867
    0.5271422121233097    0.4676729892375028    0.3884298632434598
    0.4516823999183664    0.4146829043525961    0.4009329721775923
