Au40 rank 2
1.0
   28.8654333025744876    0.0000000000000000    0.0000000000000000
    0.0000000000000000   29.6470990535866150    0.0000000000000000
    0.0000000000000000    0.0000000000000000   29.2052387221381764
  Au
  40
Direct
    0.5028756390724453    0.5607819596464940    0.6385100472024832
    0.4127580173448093    0.5382273529606487    0.6582713820579295
    0.4757779607965101    0.4707293191559918    0.6402226248111107
    0.5692699985124072    0.4962783830047440    0.6245201932471925
    0.5916014650748852    0.5849191158442179    0.6134491719400370
    0.3829342796688128    0.4663877630272680    0.6085537140961971
    0.5382357409047005    0.4070840138157999    0.6091272554601858
    0.4293555738754630    0.6124390122652281    0.6048434438837930
    0.4447175064816807    0.3950439576542935    0.5948539482929233
    0.5186139750702076    0.6430658898671513    0.5913784916755606
    0.6532629983331685    0.5211254969565758    0.5808852402127270
    0.3583229962821770    0.5526977350015928    0.5807582688922257
    0.6259625391480712    0.4338368964995822    0.5787300105141782
    0.5998424552276173    0.3437574805803290    0.5745765946325798
    0.6087970499867220    0.6628116220685347    0.5653509728343643
    0.3541832154289684    0.3956668673301351    0.5571070964499449
    0.5104744611606780    0.3381428702486106    0.5470324689341374
    0.5089572040584209    0.4779093643152030    0.5477802194391923
    0.3603495727485525    0.6376218861491347    0.5433830582396336
    0.4886922868768243    0.5663166181017124    0.5355473581573698
    0.3464214215812961    0.4808030227109631    0.5207427809378208
    0.4213209291085322    0.3406342585719392    0.5209702116461344
    0.4525619154596217    0.6564929352135771    0.5223207580346971
    0.6167701246268799    0.5820802836847020    0.5181693799128355
    0.5685561622875145    0.4043105276698123    0.5075568417174785
    0.6021720300841211    0.4927375529384972    0.5044759509936709
    0.5452510108841423    0.6403238106910228    0.4976454768165204
    0.4400763081985266    0.5017542875551255    0.4899183163761329
    0.3576251120285703    0.5643053775848873    0.4847935229588817
    0.3897285469637113    0.4117144605519899    0.4701271916538145
    0.4840101811478317    0.3868284128024651    0.4673808632558596
    0.3872726256318791    0.6472286255994942    0.4536297651326397
    0.5537543071233073    0.5554893979883566    0.4519880698498889
    0.5316106284099971    0.4652026682890489    0.4461864334477005
    0.4756071227061083    0.6095956259254930    0.4419093726200684
    0.3682003308893537    0.4920815287963141    0.4262432837575972
    0.4482315214827438    0.4418488465037354    0.4009194297738343
    0.3985736000299247    0.5767597691600379    0.3949009357770241
    0.4829783343252513    0.5287615590205188    0.3955465889878927
    0.4075374544496208    0.5018555259071992    0.3404344670008492
