Au
 1.0000000000000000
    29.3079904370000008    0.0000000000000000    0.0000000000000000
     0.0000000000000000   29.3224146730000008    0.0000000000000000
     0.0000000000000000    0.0000000000000000   30.0215876980000012
 Au 
  40
Cartesian
 15.4661899999999992 12.6231100000000005 19.5554200000000016
 17.5970100000000009 10.8636099999999995 19.3696899999999985
 13.3378599999999992 14.3138799999999993 19.8092800000000011
 11.1289300000000004 16.0590699999999984 19.9615399999999994
 15.8356999999999992 15.3370499999999996 19.0113400000000006
 17.9521900000000016 13.4845100000000002 18.5526200000000010
 13.0777300000000007 12.0059900000000006 18.2506200000000014
 13.5617099999999997 16.9701599999999999 18.9444899999999983
 15.2832699999999999 10.2782499999999999 17.9895299999999985
 11.0244499999999999 13.8954799999999992 18.2507899999999985
 18.0618300000000005 16.0267599999999995 17.4586599999999983
 15.8978999999999999 17.7964200000000012 17.7398500000000006
 16.2029999999999994 14.0965799999999994 16.4410400000000010
 17.7296599999999991 11.3602900000000009 16.6955199999999984
 13.1729800000000008 10.1253399999999996 16.2065400000000004
 11.2436799999999995 16.6019900000000007 17.2736599999999996
 18.0639000000000003 18.4981800000000014 16.1882799999999989
 11.3321199999999997 12.2660300000000007 16.0733600000000010
 13.5715599999999998 14.8341300000000000 16.8857700000000008
 18.8618300000000012 13.7678999999999991 15.7661400000000000
 13.5287799999999994 17.8013699999999986 16.2850900000000003
 15.8101599999999998 10.0013100000000001 15.2806999999999995
 10.0059900000000006 14.6750100000000003 15.7693700000000003
 14.7387499999999996 15.0457199999999993 14.3430199999999992
 19.2688500000000005 16.3964800000000004 14.9620999999999995
 15.6092999999999993 19.3167399999999994 15.3345400000000005
 14.2305600000000005 12.5426000000000002 15.3689099999999996
 14.1866800000000008 17.6664299999999983 13.5946700000000007
 11.2881400000000003 13.7299199999999999 13.5438100000000006
 11.9370200000000004 16.2783699999999989 14.5881699999999999
 17.0082099999999983 17.5367199999999990 13.7547300000000003
 17.0666699999999985 12.2155100000000001 14.1633399999999998
 12.3273799999999998 11.1643500000000007 13.7756699999999999
 12.9429200000000009 15.4813600000000005 12.1793200000000006
 14.9067600000000002 10.9111399999999996 12.8521699999999992
 17.5768200000000014 14.8202099999999994 13.4833599999999993
 15.7068700000000003 16.1366799999999984 11.7904199999999992
 13.0576500000000006 12.6775599999999997 11.6255900000000008
 15.8064999999999998 13.3323000000000000 11.9824000000000002
 14.3266200000000001 14.5397499999999997  9.9941300000000002
