Au40 rank 15
1.0
   27.7988111437077237    0.0000000000000000    0.0000000000000000
    0.0000000000000000   29.1853347522056659    0.0000000000000000
    0.0000000000000000    0.0000000000000000   29.9112995468347300
  Au
  40
Direct
    0.4352803419541138    0.5249217454188672    0.6662967018858301
    0.5051472624647884    0.4580378592921174    0.6685822210885970
    0.5294077916314678    0.5495536592600035    0.6536196155766066
    0.6006024532854815    0.4851356867359288    0.6585763673636381
    0.4827826195593499    0.3711475951995175    0.6382829422918274
    0.4164622127416499    0.4411476247967396    0.6299595421875078
    0.4561500313723300    0.5927750465339008    0.6040698563366844
    0.5727444358184007    0.4059709390424266    0.6203448980645052
    0.5478924437955813    0.6280705272968917    0.6082108820919011
    0.3938020555182515    0.5234575850983850    0.5824498807655270
    0.6073087487821637    0.5551366164402921    0.5933226536298721
    0.6303857548257785    0.4686527309511006    0.5708318550961102
    0.4324579438351920    0.3784323862051826    0.5599393059186603
    0.5281603052850941    0.3513513959950534    0.5576131671871831
    0.3599989088813712    0.4401982227677919    0.5550287378060283
    0.4112184719640450    0.5916583934445965    0.5217056370833973
    0.4929421378396909    0.6455324618460587    0.5352353316274725
    0.3821971129643907    0.5064969080322808    0.4917410517106417
    0.6217718444829127    0.3780664337235219    0.5460671291135030
    0.5894778478842023    0.6178169020741912    0.5249987237015381
    0.6364787050204550    0.5363483464671367    0.5071929587514108
    0.4713344521122756    0.3433884538335454    0.4829050108388787
    0.4101467968769190    0.4179805860012311    0.4773164046786490
    0.6306748327308869    0.4449235272926591    0.4817754747668788
    0.4393542712089956    0.6570121569607260    0.4597695157252610
    0.5636025073158569    0.3748898158532696    0.4713154901473009
    0.6228168168023964    0.6020919659161378    0.4401037341449401
    0.5391796153630003    0.6532000996784437    0.4540948610498178
    0.4884098711135200    0.4083664400726528    0.4190800409404469
    0.4099439241030000    0.5718188850138046    0.4306060079826608
    0.6383674063606151    0.5115158281801453    0.4180231862298395
    0.5822035863775904    0.4334165165870734    0.4026495342646634
    0.4247682471429545    0.4807997104595530    0.4118819223210721
    0.4803550765753913    0.6227498242130661    0.3845116814826128
    0.6350474186426734    0.5774947382439179    0.3522842813437545
    0.5728042586369545    0.6470255409190152    0.3681649613041021
    0.5071627270384824    0.4779653002274648    0.3599759540027488
    0.6007027149520596    0.4918781078577631    0.3326635984304577
    0.4409867783806646    0.5463859580978145    0.3458736508868960
    0.5372027808706632    0.5647833810313976    0.3327520120400035
