Au40 rank 20
1.0
   29.1668005017508136    0.0000000000000000    0.0000000000000000
    0.0000000000000000   30.0700571001559993    0.0000000000000000
    0.0000000000000000    0.0000000000000000   28.7316161448434002
  Au
  40
Direct
    0.5876214858757713    0.4813978893959259    0.6515798337270451
    0.5374143527681162    0.4088114681115356    0.6282435872794497
    0.4945221369812202    0.4919063476220646    0.6304459636261255
    0.4439194606949131    0.4137751078081635    0.6164065045621043
    0.5577915410789356    0.5583881923864713    0.6138998439117187
    0.4910478726459288    0.3310449185115252    0.5997265479987729
    0.5851247023270388    0.3365475105031764    0.5976346929198049
    0.3977088970988157    0.3348459987084351    0.5992202095012396
    0.6272284519742156    0.4219079693497738    0.5934769562303844
    0.4664961280556855    0.5687865009330126    0.5861796308132855
    0.4111924060934426    0.4944266372608978    0.5825429149517246
    0.5286731228658718    0.6379476539683938    0.5805149566242708
    0.6323009113885747    0.5128724949271718    0.5728554615253429
    0.3665382110501006    0.4116856761159819    0.5584556635437099
    0.4968225156041879    0.4510368016052816    0.5386297637982734
    0.6072218497417620    0.5960740007873352    0.5420087604083407
    0.6346004533994948    0.3613172694677333    0.5213350336839727
    0.4438497962993534    0.3670721851497210    0.5215763651832689
    0.5371444403034312    0.3592671381526064    0.5175738177819885
    0.4023107982859488    0.5608178315979684    0.5148246019171210
    0.6600651648188075    0.4488989357933686    0.5080899569111285
    0.3438936051409952    0.4890323481900276    0.5162654529080000
    0.4741872266991984    0.6225068487317728    0.5048731857464392
    0.4922081112917942    0.5302485125948738    0.4902068679417451
    0.5715148775555148    0.4871940840658867    0.4966531633471700
    0.5592949852482380    0.6671076808601994    0.4971434647887499
    0.6520675339173716    0.5399496535753016    0.4810219693082688
    0.4030402260095970    0.4327165090617263    0.4686514179881693
    0.5878555634219482    0.4005825115802350    0.4497734048432476
    0.4917601348973222    0.4052389138978823    0.4475794030526964
    0.6235097859271355    0.6203778861628386    0.4492350705267029
    0.3744056982775553    0.5141754556172295    0.4314504336574081
    0.4391188395359953    0.5839102513171969    0.4274193840764919
    0.5297465247559550    0.6137891397492987    0.4250228356956332
    0.6390213587376453    0.4715483453106764    0.4174378426769602
    0.5906911333091004    0.5475805976457849    0.4024113819918186
    0.5442657745471824    0.4655650712883168    0.3980695137369762
    0.4102189475107226    0.5412227812888989    0.3481996335860910
    0.5029163797153566    0.5438750530509784    0.3677878148544185
    0.4505334816434596    0.4689605428959906    0.3947053924785215
