Au40 rank 11
1.0
   29.4409599334458107    0.0000000000000000    0.0000000000000000
    0.0000000000000000   28.6024793640456636    0.0000000000000000
    0.0000000000000000    0.0000000000000000   30.6402577384095309
  Au
  40
Direct
    0.5248512825491272    0.5605592080876356    0.6757675637229212
    0.4962906812338977    0.4724048570239783    0.6570475094036244
    0.4696037598639393    0.3860709641016683    0.6328643073790944
    0.5744885694587807    0.5140777745734253    0.6140211111102855
    0.5501247990870450    0.4209601355984584    0.5967126674047682
    0.5477954773110236    0.6069349497342774    0.5986117394078792
    0.4741535286853099    0.5456472341993837    0.5981977481597778
    0.4373259378578047    0.4587755406108585    0.5841152075651790
    0.4966807627482784    0.3595303190709944    0.5490771030961519
    0.4047876974144957    0.3660440002547273    0.5706956034295247
    0.6197060558306325    0.4644404110508794    0.5509278493040934
    0.5844879746048685    0.3760772876312888    0.5234649313775274
    0.6076339914265407    0.5614842075113836    0.5404227768719501
    0.5294722864048790    0.4981367561737691    0.5314302621051679
    0.5692626756183817    0.6495125720288842    0.5226994846485720
    0.4890881309459374    0.5987098811789454    0.5235076740028809
    0.4297552402293204    0.5250479312459903    0.5189858403027808
    0.3830764513835797    0.4417024675704598    0.5136610786744734
    0.6602558589199493    0.4173181356332363    0.4850816934822181
    0.3391530144690013    0.3549652228512442    0.5063237095682149
    0.5199639393100814    0.3479980372727999    0.4606711282737638
    0.4295465537116429    0.3519852496235562    0.4835806141032418
    0.4806074147582982    0.4378968007252530    0.4809362449031702
    0.6409701573010389    0.5094891007116059    0.4718556813057572
    0.5985890032778298    0.5933322064997731    0.4551271770282631
    0.5416256295739269    0.4970646202276963    0.4438441263527191
    0.5190543093528566    0.6431391316328852    0.4464729788222283
    0.4578425958413339    0.5688529320814849    0.4436847321826375
    0.4020553094735060    0.4918056745713128    0.4380416376154330
    0.6080004195795009    0.3535415869312146    0.4383650783725702
    0.3649995494848394    0.4004053363607309    0.4316908256178457
    0.4558829994714687    0.3836607318761641    0.4029445553601815
    0.3961034054527094    0.4423722432168669    0.3584258600106379
    0.6207105205737450    0.4420885868152150    0.4056321034323973
    0.5320734797726031    0.5743186704129807    0.3855197044751119
    0.5480278063283170    0.3874966737679508    0.3782921369962369
    0.6200770453621265    0.5363183081759393    0.3869666560469083
    0.5517583308932895    0.4824175303779522    0.3524206470566596
    0.4638653276554227    0.5097071569856457    0.3714508907029202
    0.4817461859715587    0.4259351716192311    0.3259638777404714
