Au40 rank 14
1.0
   30.2333025712888599    0.0000000000000000    0.0000000000000000
    0.0000000000000000   29.6998112258576512    0.0000000000000000
    0.0000000000000000    0.0000000000000000   28.9935356486913491
  Au
  40
Direct
    0.5178195139732910    0.5770746278661930    0.6540675000307611
    0.5490541149992575    0.6638454942679138    0.6367433922528077
    0.3919491885826880    0.4777556576683752    0.6495990541184302
    0.4832000443253017    0.4908168609045042    0.6483034064074708
    0.4258173940939827    0.5637112715378615    0.6426629023307598
    0.4627762948117011    0.6462818042870458    0.6121558126213343
    0.4432814138693266    0.4074349489370995    0.6211499737451404
    0.5656116439412869    0.5056996681446384    0.6113568299615225
    0.5330053717924941    0.4195309807151646    0.6108760524876351
    0.5895520151228152    0.5941431418689214    0.5921408113401191
    0.3800617398032484    0.6218002787565052    0.5842922958713107
    0.4923072106933540    0.3359415656303779    0.5898312425035308
    0.3561924184796566    0.5329096757128816    0.5832699053787672
    0.4883056397419145    0.5620084591829511    0.5638689110297548
    0.3773186931638717    0.4412463900904779    0.5622200698023904
    0.5291423406450827    0.6506979759961006    0.5434849185543464
    0.6058374592958728    0.4370563655889011    0.5583715344231789
    0.4679196361246810    0.4725355772435505    0.5493520156436231
    0.6320065906409027    0.5257810384805898    0.5472826898704048
    0.4414059687667286    0.6358086178672984    0.5155031713667459
    0.4446440172779088    0.3840765100153914    0.5234329612669513
    0.5370457751098087    0.3822095513520318    0.5221591565416963
    0.5426645143821629    0.5090635724765371    0.5086529566259096
    0.3670492637552178    0.5804244012861405    0.5014461953972399
    0.5886943440372943    0.5963281235160697    0.4964810338092450
    0.3314241838216822    0.4933369649436962    0.5013085548071873
    0.6714637994721268    0.4558115107513012    0.4943487640497983
    0.4575813993354491    0.5360148879224120    0.4787159628326534
    0.4065673428461490    0.4495492374993266    0.4694403981435695
    0.5090831657109370    0.6229805437839963    0.4549899434626811
    0.5858571261612484    0.4337352058473528    0.4623334378624954
    0.4941768393373130    0.4299540795960708    0.4528193907330200
    0.6227505225938496    0.5199094203227446    0.4499914616490612
    0.4196633274479222    0.6064377207132965    0.4266268729168330
    0.3715681276705232    0.5252595564333790    0.4230773277424035
    0.5755894515816673    0.5844729768350369    0.4037776212717283
    0.5403258713755503    0.4978039030693959    0.4087072100143070
    0.4914517925844770    0.5722632681307808    0.3743247521251204
    0.4507737697292948    0.4871975920255780    0.3919113745729366
    0.4084749247582381    0.5577017518330202    0.3430931150635880
