Au40 rank 17
1.0
   28.7349424401126257    0.0000000000000000    0.0000000000000000
    0.0000000000000000   29.4223860866060676    0.0000000000000000
    0.0000000000000000    0.0000000000000000   29.4867355032495340
  Au
  40
Direct
    0.4750424938128210    0.4199660838894325    0.6612367241362448
    0.5701921788667406    0.4102177742046860    0.6374515469746409
    0.4422722334353775    0.4994358183661484    0.6215777056737870
    0.5332454675323941    0.4936273071352777    0.6569378950437561
    0.5182311722246062    0.5521705670276833    0.5864275530089823
    0.4159132868226891    0.4148564985596547    0.5890557968462636
    0.5868485363303363    0.4855658090563458    0.5800044062524947
    0.4259766794422081    0.5736634817144356    0.5682147416835299
    0.5018049700359956    0.3630562891909556    0.5914732257966986
    0.3721866382358727    0.4936088962761450    0.5560643647416810
    0.5850428011721788    0.3944241351519528    0.5490926181486527
    0.4296210056076111    0.3402971899581667    0.5361583298082195
    0.4648525290682842    0.4839318249327980    0.5277148243820097
    0.3490816724218305    0.5743593967279996    0.5125558993604208
    0.4997232277307497    0.6079916128945378    0.5147277392497054
    0.5776514477204290    0.5500860119678657    0.5134442049682223
    0.5210135688082672    0.3420795180427577    0.5020303794940313
    0.4119590160012939    0.6449216968358543    0.5072071490981273
    0.6198456111184965    0.4664553021796617    0.4957709609991252
    0.3816636400425178    0.4154419454493775    0.5015222366814337
    0.5218008297447529    0.4344262599181712    0.4757269889080682
    0.6014417824960726    0.3812131308272810    0.4570221297245154
    0.3647552389344847    0.4990917745818331    0.4603065068393390
    0.5024054824897135    0.5217637383271396    0.4513292173482509
    0.4408950279395841    0.3639026591461001    0.4477990847279361
    0.4095255296449263    0.5803452120128286    0.4388189962531909
    0.5562981580543485    0.6070336003358111    0.4396161356924183
    0.4703613858051695    0.6567630553390782    0.4358469851473622
    0.6095163519509452    0.5303486450320627    0.4266604124734284
    0.6515453100509904    0.4458791619821726    0.4103636218856226
    0.5260818726758996    0.3473884227148325    0.4092651685585170
    0.3833247404288987    0.4261811182806258    0.4074565631923262
    0.4288637362046164    0.5042835701606982    0.3871288197630512
    0.4739228289041677    0.4207019195859982    0.3784601724561585
    0.5699768139608581    0.4196784458507077    0.3700833793445342
    0.4810298893368520    0.5822881423348567    0.3760854375732088
    0.5319195396344306    0.6610031769820820    0.3647658878076121
    0.5207044737681428    0.4993736249070356    0.3539472648692161
    0.5748365980896156    0.5792294329737182    0.3483206438908708
    0.6166976125947410    0.4973251795429384    0.3395508406933010
