Au40 rank 10
1.0
   30.0793032304244576    0.0000000000000000    0.0000000000000000
    0.0000000000000000   28.3841058479653512    0.0000000000000000
    0.0000000000000000    0.0000000000000000   29.8975838419014650
  Au
  40
Direct
    0.5523477011667733    0.6228383899466258    0.6676757082263494
    0.4679065336996601    0.6161053061155294    0.6329578342911538
    0.3871750262866843    0.5997918410641018    0.5922973931386718
    0.5309973549104473    0.5398439604686494    0.6234152509344468
    0.4448619532358686    0.5248694539058244    0.5957184179523863
    0.6132674151510917    0.5870322234135299    0.6078136695994274
    0.5406669197286926    0.6409333785032616    0.5774345306026669
    0.5938674441204392    0.4981030644623710    0.5676098952391603
    0.5094824090596121    0.4601979378106494    0.5717908718118556
    0.4560126730054043    0.6334194139998751    0.5418383712099988
    0.3569735051208034    0.5157516571468961    0.5610970222100929
    0.4206880315756787    0.4427336443249076    0.5518788515375450
    0.5204656353690968    0.5569875014808593    0.5283556963535817
    0.5741353304523452    0.4157109106564948    0.5207717313914184
    0.6510063645382724    0.4691893133478448    0.4996049604173823
    0.6685697579028367    0.5522723322378376    0.5434644708821698
    0.6063401601978401    0.6157155724244351    0.5164475413159653
    0.4864995586506812    0.3904959055360018    0.5095303427364674
    0.5264300123637022    0.6481793299095909    0.4842443675674448
    0.3313493590996248    0.4314609703857384    0.5280834180140271
    0.4420766998362317    0.6381956243528066    0.4493539027585012
    0.4767493638159220    0.4874153073466072    0.4821459693542521
    0.3903434185816770    0.5787100245633727    0.4993992264419801
    0.3946062872073425    0.3906043839699836    0.4751071807641384
    0.3771491862994002    0.4877586101678322    0.4686400795325572
    0.6364041549458032    0.3848045607167786    0.4587711690062078
    0.5628724518994592    0.5049551596827604    0.4637234932291530
    0.5491780046515452    0.3558656106421050    0.4498811675508925
    0.4612618377293740    0.3518043830062617    0.4275300026593227
    0.6453970418232973    0.5548628030791518    0.4529460971907119
    0.4315103944120087    0.5459767289348997    0.4203312843045832
    0.6337045364761512    0.4678734135698275    0.4086944658635025
    0.5114403134496668    0.5947226136883688    0.4072525656974420
    0.5947763734160512    0.6327016831724006    0.4257036960890841
    0.4350480753838682    0.4445164179020792    0.4070440988055475
    0.6001870168420153    0.3798783047078370    0.3750680218207982
    0.5116761500536775    0.4042500772373235    0.3713964219119884
    0.5023792637380725    0.5031948814937393    0.3783763723401384
    0.5867769508935896    0.5480300166168709    0.3793130701801555
    0.5749192958948643    0.4633673650394451    0.3371512472323034
