Au40 rank 1
1.0
   30.0322744769651990    0.0000000000000000    0.0000000000000000
    0.0000000000000000   28.9720316997918559    0.0000000000000000
    0.0000000000000000    0.0000000000000000   29.3526826866940027
  Au
  40
Direct
    0.5405318127807117    0.4847438359384858    0.6552498654808336
    0.5047323861372859    0.5712762826170322    0.6439088960308557
    0.4528730315087004    0.4902280077321172    0.6270024968212662
    0.5031155222316920    0.4071081003646999    0.6127215654017850
    0.5882935069836356    0.5514655984657785    0.6085723989897471
    0.5925271382714139    0.4296455815214190    0.6002905673823338
    0.4142171587368488    0.4103388655993334    0.5924780764391506
    0.6484900723736180    0.4964077321383656    0.5653817121708964
    0.4732779424628802    0.6551408722356028    0.6143160619729222
    0.4277328662716419    0.5755215427706302    0.5897163853932800
    0.5266863331539472    0.4863679265709840    0.5601491556527791
    0.4676699970201247    0.3443559336144248    0.5508900801094935
    0.5444994326716959    0.6230611175800347    0.5661422309169809
    0.3815517579395035    0.4975363367755752    0.5674489946032593
    0.5541569939751710    0.3706924877690315    0.5369444454982341
    0.3340782587517771    0.4171031282452268    0.5468127952685887
    0.6027382089581096    0.5683002239088863    0.5175681984924998
    0.6383848186870162    0.4104499805739388    0.5223105309617542
    0.4603690264566578    0.6367282739775113    0.5229208385590673
    0.4050538662114088    0.3861492806239114    0.4973103815965895
    0.4562614792180668    0.4720389737304198    0.5003884675766450
    0.5445762651682593    0.6316233061887253    0.4700201031435812
    0.5429180341841408    0.4760259919757933    0.4677223372375210
    0.6410049426895001    0.4953920164388129    0.4726887284626056
    0.5031192569037867    0.5538010940878955    0.5007466144746062
    0.4077516088647737    0.5256773057075735    0.4110887313374421
    0.4053992068378599    0.5600173745233650    0.4991372890117912
    0.6679408657095524    0.4139634743409508    0.4326893852578716
    0.4555148110676169    0.6066621886102541    0.4335137345626587
    0.3648733759316594    0.4740482894963982    0.4762880466050396
    0.5805900295422861    0.3887634904866005    0.4482953003067322
    0.4276131260271925    0.4308847369345599    0.4168445832621330
    0.5307368568568314    0.6127312645104965    0.3781426491951842
    0.4916494981870822    0.3791356191400177    0.4658317825709921
    0.5870288865880798    0.5563327429279724    0.4262703018357790
    0.6020776563771412    0.4657538020592520    0.3903345199636768
    0.4560368013207602    0.5717850254559561    0.3453626357880741
    0.5158723466573973    0.4284122394960798    0.3880234464089335
    0.4518899354375402    0.4778415272568690    0.3395546199861682
    0.5336733625961683    0.5185351675354122    0.3572286010893008
