Au40 rank 3
1.0
   29.6382860121267626    0.0000000000000000    0.0000000000000000
    0.0000000000000000   27.2289806919884256    0.0000000000000000
    0.0000000000000000    0.0000000000000000   30.3089461428720455
  Au
  40
Direct
    0.5085074351341988    0.4962274382835077    0.6698867902222277
    0.4256576233802901    0.5319577504758005    0.6505479682224461
    0.3439580683873629    0.5680718449450564    0.6239051453425247
    0.5893342593866625    0.5247932217732713    0.6342932304804313
    0.5047280641917562    0.5683375600020393    0.6071594041383143
    0.4495515074886512    0.4413115107777120    0.6145576762022078
    0.5422011339003143    0.4446664513939870    0.5997098694734672
    0.6649239524220989    0.5553547029576326    0.5890455959474886
    0.4204862609051965    0.5930673104934205    0.5760465402262319
    0.3751722599108093    0.4875866280655994    0.5791504031836848
    0.5807202047632243    0.5839573358223136    0.5566313974134227
    0.6164162910812889    0.4783702756472272    0.5550553772540485
    0.4900431154930531    0.3693931964340731    0.5646018904950999
    0.4386952444006889    0.5172245792734547    0.5094404415455204
    0.3378071102102431    0.5680652848918586    0.5330958401753382
    0.4961138660149397    0.6072339158541850    0.5229790670596368
    0.4168519486250167    0.4169337034674457    0.5286326536365449
    0.5305298545390832    0.5022788059189314    0.5132701134639543
    0.5643294113559360    0.4027487802207901    0.5193195655204084
    0.4852164113672235    0.3808021119583191    0.4744160444517205
    0.3502444856804772    0.4771461298593789    0.4907159196721187
    0.4097423536799697    0.6165905521304231    0.4881374550028565
    0.6500118154583909    0.5519377694880508    0.4988810842558540
    0.5685131789448797    0.3802716631921866    0.4315774965273130
    0.6139053085336242    0.4620645992659107    0.4648187574063656
    0.3402189147031595    0.5650498250727274    0.4438652235877114
    0.4106820261555224    0.4240498808424047    0.4375721061336554
    0.5672775738245683    0.5898568526045097    0.4659961836563848
    0.4849163870600666    0.5053115749054651    0.4329425594402975
    0.3373378937905100    0.4723807924725429    0.4021351132057064
    0.4837232369817232    0.6163163923719004    0.4323848031143920
    0.4913349782562884    0.4141245535481756    0.3886879956224594
    0.6301936379594301    0.5407162284445745    0.4116101462163529
    0.3964947667296819    0.6335612626143907    0.4010832042441269
    0.5764425466660306    0.4644116010142294    0.3806265716769103
    0.4187227354678207    0.4729680778076336    0.3569728646379209
    0.3638679747200956    0.5537416447133536    0.3559000333151300
    0.5453782185946622    0.5631415364394836    0.3799173216428174
    0.4547777140164111    0.5708334882917898    0.3543576079083200
    0.5049358584579046    0.4907740132204033    0.3296789100403488
