Au40 rank 13
1.0
   28.5822730182395830    0.0000000000000000    0.0000000000000000
    0.0000000000000000   29.5040623924260927    0.0000000000000000
    0.0000000000000000    0.0000000000000000   29.2675025184118809
  Au
  40
Direct
    0.5625927336890884    0.5515109995325278    0.6590326786673764
    0.4759583466631550    0.5203069898426632    0.6361012822866616
    0.3920944331970323    0.4811053052055793    0.6155905681088888
    0.5569182626487608    0.4857153664254173    0.5915552631421918
    0.5062809034353111    0.5992458193239756    0.5929667127214544
    0.4709459675842684    0.4472542273789600    0.5737801478735595
    0.5979218596024859    0.5720324655458343    0.5750862319178734
    0.4156855839184733    0.5631581924322558    0.5738428712682115
    0.3812609888592717    0.4112302175633337    0.5554325565114099
    0.3609676298374165    0.5000692899099732    0.5271703177296725
    0.5489591716292668    0.6197053455658460    0.5072003912452036
    0.5438126339673709    0.4288992471579064    0.5174687838781126
    0.4631130792877829    0.3775196999272536    0.5116058202851810
    0.3763593666612983    0.3368986469997354    0.5003403842943474
    0.6004817334891862    0.5020364933357081    0.5091596042126472
    0.4536482073462919    0.6317067425855960    0.5205990311622145
    0.4948926729708933    0.5373271944186720    0.5178680713686241
    0.6389804449099844    0.5858852333963134    0.4921423268684960
    0.3712481902931426    0.5862895485138409    0.4945732060947904
    0.3557775786662162    0.4259178612611012    0.4647030527088173
    0.4417519210514322    0.4760000019716173    0.4724134454734860
    0.4940688494762732    0.6384237406738441    0.4331536660515513
    0.6018658224792856    0.4363366547330405    0.4421804608968215
    0.3518910587492936    0.5146341314766485    0.4339795065956590
    0.5127476172137089    0.4014294066188899    0.4344902988153029
    0.4207519402438460    0.3680216629233562    0.4241693728920032
    0.5750817226173852    0.5909597709072960    0.4201149824570178
    0.6430689218114394    0.5223397800540783    0.4245178859170213
    0.5203951424287167    0.5094588642037310    0.4332029603731034
    0.4020775025335771    0.6638677889933325    0.4499475176664762
    0.3478815612223000    0.6014272758637977    0.4037727016042496
    0.4038615303638997    0.4528276113611172    0.3836499792447806
    0.4108742350264701    0.5427455921534031    0.3623661691723222
    0.6514369540268300    0.4538581660171124    0.3626119533289310
    0.5780866273390963    0.5203664627703117    0.3534085370294684
    0.4848284753544406    0.4872197416691206    0.3433005108645741
    0.4717705508915009    0.3936310123317060    0.3497332657493065
    0.4279430343982187    0.6354273647623743    0.3636652181711256
    0.5021662415299823    0.5784282978608754    0.3588035917017579
    0.5605055503845707    0.4274247484677231    0.3541390113465560
