Au40 rank 12
1.0
   29.1954489811089530    0.0000000000000000    0.0000000000000000
    0.0000000000000000   29.1318732749929055    0.0000000000000000
    0.0000000000000000    0.0000000000000000   31.1112507947982522
  Au
  40
Direct
    0.5287508648543368    0.4288201919644116    0.6584737707114851
    0.5413236806177483    0.5185017157826652    0.6814524011096346
    0.4636931180060654    0.4965518543305876    0.6380621544643499
    0.4529640270606626    0.4073150929994719    0.6061551699786452
    0.4926891117406981    0.5916752762318445    0.6510673320428902
    0.6019425191593535    0.4792854090552159    0.6233659203110440
    0.5792813899445869    0.3956453046190501    0.5865168480500428
    0.4119557068394850    0.5694221971106295    0.6057875750698716
    0.5748820867392052    0.5715358477454412    0.6130828776487548
    0.5158873146359320    0.3409337177481342    0.6248903623690678
    0.4720668003663614    0.5301050473933521    0.5464942312530845
    0.4414945544052427    0.6598752257808509    0.6147622200375416
    0.6528183271835140    0.5407141264873644    0.5735979939732943
    0.5166250020933534    0.6279474361098777    0.5678629591612490
    0.3965829547926836    0.4769801681123778    0.5811972491204304
    0.6426402291249396    0.4509579006088634    0.5455358612672457
    0.5040165272313855    0.3647320877483678    0.5386600399096060
    0.5522470221267998    0.4850115772273964    0.5452944339327144
    0.4295402880301402    0.6258241607807399    0.5326121035668742
    0.5882542484810127    0.5881396068570418    0.5253756056209564
    0.4236481339605461    0.4097216611960464    0.5211174714787317
    0.3451754971404712    0.4597574177849376    0.5088595774435747
    0.3724522973826215    0.5489136631406152    0.5263301336919481
    0.6503450095607499    0.5287126840411558    0.4869798004123227
    0.5798683421024088    0.3989970044221146    0.4965035198816007
    0.5077538091553155    0.6054638943435350    0.4818431962574377
    0.5091994699769904    0.5042095951514969    0.4703444345941950
    0.4937742317303696    0.4075578957478022    0.4605136224510668
    0.6584716369725901    0.4383292932446861    0.4601087784837431
    0.4206750518145748    0.5821196645381003    0.4548331931975286
    0.4116249079189637    0.4527652855086275    0.4433677590260570
    0.5820538410696319    0.5681201413921102    0.4382243030802042
    0.3467029912171563    0.5243976813683643    0.4438275879505456
    0.5723097861047792    0.4459664976425456    0.4209335693878106
    0.6438388288069720    0.5067683863558474    0.4002523132386055
    0.4944726724598558    0.5701741270604126    0.4002215897909841
    0.4850166307831034    0.4649158574445385    0.3888544360291583
    0.4104823695311351    0.5245959742140722    0.3817038506627762
    0.5621514842252484    0.5171457438941518    0.3610683590551182
    0.4785216096403528    0.5269083138682111    0.3208190999479222
