Au40 rank 8
1.0
   28.7963424076822747    0.0000000000000000    0.0000000000000000
    0.0000000000000000   28.7141176201588237    0.0000000000000000
    0.0000000000000000    0.0000000000000000   29.8983481049940565
  Au
  40
Direct
    0.4283186359470819    0.4478973044607718    0.6653239712444631
    0.4938754700264983    0.5150978065330618    0.6516927193592648
    0.5205966425017793    0.4209534896049725    0.6505280308141139
    0.5870752685576208    0.4882389529676363    0.6527507716866824
    0.4456034609616587    0.3629399736015891    0.6276598188161183
    0.4107674656679456    0.5168331322290094    0.6043607068538454
    0.4748264832730711    0.5872265997098445    0.5910673695414619
    0.6535775140421939    0.5583720084980535    0.6485234006450982
    0.5629127621918927    0.5784735888482098    0.6258474596466072
    0.5297828889566618    0.3493125943058989    0.5880225410151804
    0.6408015922992912    0.6066898508592734    0.5712955631806239
    0.3868236277483507    0.4220867953694825    0.5843878605298567
    0.6323586701738255    0.5094205903400660    0.5708308278391911
    0.5498080908399755    0.6378996376570826    0.5544239223065204
    0.5300281667499829    0.5093489023128482    0.5608013407275904
    0.3479159145320688    0.4943334130968851    0.5373075072602990
    0.5837959201074016    0.4262474591890435    0.5784827095974565
    0.4540787678237457    0.4734020737023785    0.5197091380771944
    0.4506191720870802    0.3685986690250119    0.5357172227898637
    0.4061118729697249    0.5697082654811521    0.5265126169895259
    0.4617277222275629    0.6455492568231886    0.5180564281691313
    0.6237733409171781    0.6494168659256555    0.4928230176373976
    0.6346327071062734    0.5548696149056079    0.4898356720102126
    0.5399179817759111    0.3899087301176408    0.5043137560424907
    0.3798723353398271    0.4171106636105206    0.4900446965950485
    0.6003974634369521    0.4644669272126419    0.4948934448678675
    0.5196025875921539    0.5215461967968872    0.4699818098053684
    0.5356109654336406    0.6268485540555326    0.4631475054409226
    0.3837035563791667    0.5151617201615262    0.4531259717913793
    0.4479700493223814    0.5867864022169490    0.4454017344254736
    0.4635124860848401    0.3957140602874279    0.4485895083414050
    0.6143588175881606    0.6102216439141039    0.4105532104526721
    0.5474062399277773    0.4344677975483905    0.4228427765158393
    0.6041920435936317    0.5119476390724059    0.4135129425705225
    0.3908002650484929    0.4358537362904107    0.4009162233175700
    0.4537178951280739    0.5108327463742092    0.3894645801339466
    0.5251024917311151    0.5751140113813914    0.3874319431298136
    0.4756259595670331    0.4235268820307531    0.3596420703072480
    0.5403068772816899    0.4898572611498490    0.3442061461872898
    0.6018020248732325    0.5615981327809286    0.3324943406888128
