Au
 1.0000000000000000
    29.4267108069999992    0.0000000000000000    0.0000000000000000
     0.0000000000000000   29.5993677859999984    0.0000000000000000
     0.0000000000000000    0.0000000000000000   27.7712570039999989
 Au 
  40
Cartesian
 13.4813200000000002 15.1854800000000001 18.1352699999999984
 10.9740900000000003 14.9008599999999998 17.0437000000000012
 12.0412999999999997 17.3759799999999984 17.0608900000000006
 14.3450299999999995 12.5678300000000007 17.7536200000000015
 13.5341199999999997 19.6702399999999997 16.6790500000000002
 11.6770899999999997 12.2801799999999997 16.9197999999999986
 14.9024699999999992 17.2773900000000005 17.0566600000000008
 15.9402699999999999 14.7121700000000004 16.8207599999999999
 13.6791000000000000 10.7393199999999993 15.7003199999999996
 15.1823300000000003 18.7588000000000008 14.6825600000000005
 11.0879399999999997 10.7576599999999996 14.6951300000000007
 10.3935700000000004 13.5054400000000001 14.7453199999999995
 16.1140100000000004 12.1910699999999999 15.6444500000000009
 10.7027099999999997 16.2929899999999996 14.7253500000000006
 12.3719000000000001 18.4486899999999991 14.4892400000000006
 17.2419000000000011 16.8794100000000000 15.5462199999999999
 14.8419500000000006 15.9778800000000007 14.3782499999999995
 17.8461099999999995 14.1720699999999997 14.8713400000000000
 13.3971999999999998 13.8820899999999998 15.4232800000000001
 15.6189999999999998 10.0743500000000008 13.8966600000000007
 16.7699999999999996 17.5225800000000014 12.8103200000000008
 12.6716499999999996 14.8659099999999995 12.9716000000000005
 13.0947899999999997 10.3960100000000004 12.8939800000000009
 17.4722100000000005 11.9636099999999992 13.1360600000000005
 19.2855699999999999 13.8710299999999993 12.4401899999999994
 10.9940700000000007 12.2513500000000004 12.3844700000000003
 15.0670300000000008 13.5214800000000004 13.1960200000000007
 19.1526099999999992 16.3312600000000003 13.7171099999999999
  9.9335799999999992 14.8228799999999996 12.3734699999999993
 11.2510800000000000 17.4090899999999991 12.2209199999999996
 14.0312000000000001 17.7622900000000001 12.2756799999999995
 12.6959999999999997 11.4368800000000004 10.3733299999999993
 15.2524899999999999 11.3865400000000001 11.4237900000000003
 16.8877899999999990 13.6279699999999995 10.9681400000000000
 11.4053400000000007 13.8327799999999996 10.0945400000000003
 18.2548899999999996 16.0063099999999991 11.0623400000000007
 15.5855499999999996 16.1528500000000008 10.6293500000000005
 14.1923499999999994 13.7731899999999996 10.3368599999999997
 12.8674900000000001 16.2176399999999994 10.2729099999999995
 10.0587199999999992 16.2482299999999995 10.0255899999999993
