Au40 rank 4
1.0
   29.7444403886052484    0.0000000000000000    0.0000000000000000
    0.0000000000000000   30.3826612692746210    0.0000000000000000
    0.0000000000000000    0.0000000000000000   28.6155124305780433
  Au
  40
Direct
    0.5210533071621518    0.5031105671293037    0.6268913648888660
    0.4340215554437242    0.5336413231600287    0.6402902183135045
    0.3639938397739495    0.4845097215963140    0.6070242875226748
    0.4479954614334354    0.4466855984949503    0.6138525427108271
    0.6006631363700800    0.4805692160797694    0.5840457100857155
    0.5786814740041751    0.5694010369961210    0.5858409146660202
    0.4292286589839416    0.6028678856697326    0.5754076135613194
    0.5029430479482354    0.5919228132323643    0.6322324644073171
    0.5370097107058452    0.4174529074328882    0.5996982924819050
    0.3479405977058431    0.5735779657907620    0.6083040234777669
    0.5417833664848373    0.3347792981036287    0.5609145411497339
    0.6568980953795988    0.5441741136321586    0.5442949033289152
    0.6068725732488472    0.3941958177303843    0.5390490445889220
    0.5154469705736182    0.6199921970589435    0.5407664460107972
    0.4657557395749771    0.3844381069285269    0.5429399193202502
    0.6657625926679511    0.4584200109623565    0.5191149200802690
    0.4965713137708017    0.4757502374669719    0.5316230722283090
    0.4004076817621887    0.4464600088773802    0.5276982113585308
    0.3499756542312905    0.6243324849818330    0.5276073706200570
    0.3684542815004728    0.5328156818477304    0.5245277118322179
    0.5910802488859498    0.5910425445646447    0.4927104654302357
    0.4632529924260414    0.5514137377589919    0.4924326216252362
    0.4387891301095146    0.6452525715602596    0.4906275166569467
    0.5344454696526345    0.3795074978414413    0.4758027817100676
    0.5408773027770365    0.5109225567674068    0.4602065898772823
    0.6380524887776254    0.5204280599405128    0.4528020705472273
    0.6072846171781635    0.4305152020866875    0.4502666883656214
    0.4508377777779372    0.4177503558939776    0.4527402010006907
    0.5166354994972215    0.6236900919904868    0.4442283686712973
    0.3986549471232830    0.4934571603227790    0.4441692152173355
    0.3605114867061086    0.6711054961270130    0.4464919146978183
    0.3776946402837411    0.5817025746212650    0.4440158428464320
    0.5272749446885383    0.4328291182211239    0.3992042830976139
    0.5788909651538441    0.5721811509048805    0.3970808236731284
    0.4316699065820152    0.6406008851339304    0.3929645661442850
    0.6000866003770873    0.4852997070452292    0.3743904749837990
    0.4310483171772791    0.5497279190097981    0.3717605261087046
    0.4430724248223812    0.4605802529695754    0.3692699418246634
    0.5157108908702142    0.5137200509057928    0.3517987584743322
    0.5042716045806294    0.6033739591344064    0.3513979320317758
