Au40 rank 5
1.0
   29.6795821913775555    0.0000000000000000    0.0000000000000000
    0.0000000000000000   27.4938527554772207    0.0000000000000000
    0.0000000000000000    0.0000000000000000   29.7192494206292679
  Au
  40
Direct
    0.6018958958218655    0.6252528969790673    0.6631303419345337
    0.5803397544928204    0.5296955482953200    0.6397850023608427
    0.4889548307135526    0.5113909714751513    0.6325370236554324
    0.6583567518116209    0.5721015009916970    0.6070444871428934
    0.5190282674409361    0.6098770994689298    0.6253925675710403
    0.4015593946014167    0.5003619512914641    0.6072005252138700
    0.5536438973926521    0.4422750689006131    0.6047671926364552
    0.4426456656771075    0.5848134476621124    0.5802694339034588
    0.4582853090941515    0.4233518699598551    0.5961188586631888
    0.6323259636592109    0.4833902146633060    0.5694592080027673
    0.5914490288432415    0.6307258103613197    0.5688406530396836
    0.3648464716735354    0.5514176634444220    0.5364838205331023
    0.5413488833368797    0.5397632463410201    0.5515433374009758
    0.5055266522935740    0.6394728677120722    0.5329216724693507
    0.5978048195388176    0.4035168734427843    0.5258816982889769
    0.4004318193288756    0.4570799941724095    0.5241606007253443
    0.5235809910038630    0.3592113210770294    0.5624191141111661
    0.6439630339658297    0.5664469987084872    0.5162522829753211
    0.5089330484503668    0.4541315656090968    0.5152377637479342
    0.4710739833053967    0.5410221194647509    0.4881761519028326
    0.4428734221475119    0.3693480735233438    0.5158269764624893
    0.4197470216409115    0.6277302609966600    0.4981641669483787
    0.6429000598624276    0.4743653255998934    0.4770575957885141
    0.3370601337545711    0.6045206570683798    0.4633677848183460
    0.5803553856686234    0.6271941343434266    0.4772233276507951
    0.3856416333309484    0.5146486437341513    0.4504454955956951
    0.5579512749588628    0.5191432805972287    0.4606194695851883
    0.6033693108561506    0.3943190158304802    0.4333175326918168
    0.4944503591468338    0.6338589639182025    0.4401185151564662
    0.4441123976950105    0.4328037283863342    0.4434889299291894
    0.5219276071224573    0.3673579202808099    0.4668951141988940
    0.6381182019163359    0.5635354900202324    0.4255139244151304
    0.4100409525557746    0.5998877154848093    0.4068732658839300
    0.4593710502778391    0.5122725678198584    0.3911517329637429
    0.5258443741116554    0.4405080503602746    0.4006788448319695
    0.6162755163019343    0.4756702826304573    0.3840154431710575
    0.5674307574307369    0.6149105572126833    0.3862210776805442
    0.4819741931032748    0.6002061790639521    0.3511326550299333
    0.5410073920062852    0.5228433996836330    0.3495870302738406
    0.6252262720537276    0.5615780564971925    0.3329528995293959
