Au40 rank 16
1.0
   28.7021279311845277    0.0000000000000000    0.0000000000000000
    0.0000000000000000   30.4080285979347380    0.0000000000000000
    0.0000000000000000    0.0000000000000000   28.6156918939990632
  Au
  40
Direct
    0.5976574254774608    0.3714633107131841    0.6504488671228686
    0.5320257001770387    0.4378966224491747    0.6334571031954971
    0.4432063447149457    0.4157465915710606    0.6052665438513771
    0.5638244424036631    0.5214422808304721    0.6178465600907544
    0.5121554913686398    0.3481753097940520    0.6160040089996464
    0.6280277812338073    0.4493919330178861    0.6143205580452338
    0.4690645668783726    0.5033644977124583    0.6082010708336121
    0.5017112770221407    0.5875373098088688    0.5972414180702340
    0.4266908763137112    0.3289149384449581    0.5773605712254141
    0.3588072702508636    0.3905226325631123    0.5660251225963682
    0.6494513876779184    0.5271795221611500    0.5748619634480269
    0.5970471543754613    0.6011088543688978    0.5795896047813366
    0.3855692789040320    0.4781011059555693    0.5653588775840969
    0.5376342233847625    0.6723129551915603    0.5809424759587988
    0.4179835727174546    0.5626709779470359    0.5569506443962379
    0.5799186105978175    0.3867738131067104    0.5568523115912443
    0.5079701861407995    0.4512755942227263    0.5314087615452328
    0.4555075231745402    0.6471595809726614    0.5379826543556320
    0.5038436616490050    0.5381149553940510    0.5024386981314216
    0.6125390938958933    0.4635197482364132    0.5162049086473208
    0.4990502593465388    0.3510043587536144    0.5195860042390502
    0.5436441821973694    0.6245976037121931    0.5000113285338467
    0.3794406812101113    0.6182756532571303    0.4897248490396624
    0.6047486562021103    0.5522322720781576    0.4936104868093152
    0.4381368418505401    0.4809009779168608    0.4739975654702657
    0.3533123333423437    0.5304677022345893    0.4916299190990332
    0.3484667971598013    0.4354674477017769    0.4846260482699248
    0.5585674062385504    0.4022683297940199    0.4632401340783476
    0.4061477706740989    0.3606323359311233    0.4867213457965049
    0.4639488244608705    0.6170626159257846    0.4457090324968305
    0.5754184884389631    0.4871924027937182    0.4317827636428599
    0.4810634828217651    0.3571780204603902    0.4273982568334366
    0.5455419877967088    0.5753145494164192    0.4197144728273643
    0.3872337198891790    0.5704335688421469    0.4083307329744484
    0.4099346328462438    0.4153777441048844    0.4099177278672972
    0.3499051126358890    0.4878046133777751    0.4066594399764853
    0.5066650400740802    0.4355932964303070    0.3901134515933541
    0.4375097554851439    0.4965705996636786    0.3712386913009789
    0.4672473878065524    0.5820734905233421    0.3575033194263775
    0.5310347194591839    0.5150479119461491    0.3516417617702844
