Au40 rank 9
1.0
   30.3519033733268913    0.0000000000000000    0.0000000000000000
    0.0000000000000000   30.6891765011586983    0.0000000000000000
    0.0000000000000000    0.0000000000000000   27.5560278912365746
  Au
  40
Direct
    0.5087628308440411    0.5079916910395886    0.6341424953837932
    0.4256581066817121    0.5430245655299519    0.6365719462087744
    0.4343738613588872    0.4514706990406876    0.6304213842058037
    0.4911891373135396    0.5784433606708625    0.5734373396097753
    0.5546317327282642    0.4394482965748422    0.5943386773879686
    0.5672051583417583    0.5261250832538654    0.5611313308938456
    0.4812123828416369    0.3865140333376430    0.5846562069291605
    0.3724067622356702    0.4963367171243634    0.5739410155263274
    0.4016080951544710    0.5832443148083054    0.5523212725690901
    0.5454072457189322    0.5903826653373492    0.4933132483403824
    0.3996687729979250    0.4123823756329417    0.5459785433562752
    0.4770452899471245    0.4754934856322832    0.5440549707940946
    0.4625820448941171    0.6314981556721998    0.4978269561351066
    0.5422169125866678    0.3900894580718831    0.5090674946413719
    0.6099381126719563    0.4527798496113060    0.5175661623027813
    0.6185850741387694    0.5385746835470668    0.4814877536010478
    0.3287746177646589    0.5480528377649895    0.5074458830781390
    0.3479184935061096    0.4633405315876172    0.4848733400492798
    0.4572591117565225    0.5424445502697804    0.4777771791773543
    0.4596357759299871    0.3530955903237817    0.4968686514543956
    0.3767098137852342    0.6165380535703183    0.4621186960820246
    0.6633900814395405    0.4671952977160982    0.4368278747275570
    0.3823653664993101    0.3857037110525366    0.4521845859412133
    0.5319752622507026    0.4899809261647433    0.4652145512976200
    0.4333051661772002    0.6763400240583812    0.4169363222572142
    0.4346713612529828    0.3276605597405409    0.4041484834700741
    0.4440772979167442    0.4561466537389837    0.4552288566332016
    0.6704515028459062    0.5509863159653610    0.4000121010110988
    0.5127366794672203    0.3726444196367318    0.4145082876498976
    0.3708892623020739    0.5335987464308676    0.4210100426134291
    0.5131173828287777    0.6355562520435314    0.4112127683803553
    0.5874505159828703    0.4182748804432683    0.4260455582460721
    0.3617036480187223    0.4513618278666220    0.3850229775106100
    0.4354548547299793    0.5892014296931137    0.3882624981948044
    0.5937038471452347    0.5030335671366004    0.3843762449473039
    0.5923460726726587    0.5949460850724447    0.4050209567078165
    0.4406157590023452    0.4103828964245596    0.3654877335833201
    0.5183476438940097    0.4558228594945285    0.3682788773840788
    0.5160170923848816    0.5481526461734781    0.3762453592924406
    0.4386846719368450    0.5017569478219772    0.3618255213509403
