Au40 rank 19
1.0
   29.0163247310498811    0.0000000000000000    0.0000000000000000
    0.0000000000000000   29.4619028116361825    0.0000000000000000
    0.0000000000000000    0.0000000000000000   29.3953284663133552
  Au
  40
Direct
    0.5882226450964808    0.3979767075767330    0.6585762266622270
    0.4936190005050977    0.4051636120772429    0.6560313126303039
    0.4566023849830362    0.4872388079955070    0.6257648735413028
    0.3994881176988040    0.4115758367682282    0.6515075526551316
    0.5500668318107975    0.4734043386614670    0.6167818450570255
    0.4138087128341595    0.5534445450980902    0.5733278664874305
    0.6233738754199649    0.4254627791993518    0.5761426120720787
    0.3624658588237294    0.4904422988179993    0.6186685504557229
    0.5101523025570114    0.5438907062335192    0.5716504977875655
    0.5423755233843540    0.3715354122672513    0.5803119307335570
    0.4459301757668432    0.3680615853875260    0.5812163953762590
    0.5926844101297513    0.5081134654835558    0.5386840873029941
    0.3636659196749861    0.4128232757491696    0.5637201794175447
    0.5015801932803129    0.4483954855567379    0.5348049381864328
    0.3742065402018587    0.5828299759766612    0.4912207322045657
    0.4659878502931969    0.6100204182004991    0.5211116345423369
    0.6569915029828234    0.4542450261284730    0.4939783302804896
    0.3494459122770455    0.4993198567225844    0.5259387840794054
    0.5846864380618358    0.3874264685342012    0.4979568538495767
    0.5507939863995768    0.5768522310153240    0.4919552809609528
    0.4620218908305058    0.5172480790070961    0.4870216375164414
    0.4963669311693648    0.3510656046702784    0.5022403042248252
    0.3999295047985727    0.3504562734728212    0.5020747712343810
    0.6173551980716889    0.4201419488453323    0.4167923890443050
    0.5037442596659096    0.6379730296574593    0.4366375915862126
    0.4491081716196432    0.3381417351971692    0.4216801693256096
    0.4538481496793726    0.4304246444299604    0.4571509575469721
    0.3747110548792569    0.5053455355746085    0.4357875682806168
    0.4148763009082269    0.6620343380508338    0.4632454720315968
    0.3459584742935755    0.4232308979290232    0.4719976157530396
    0.3516576647584890    0.3448401583049877    0.4203762736544227
    0.4312992792990483    0.5795729897077680    0.4148928479463351
    0.5967488290575564    0.5086913453051746    0.4444327703930682
    0.5226668714458017    0.5517771855178111    0.4043566024587899
    0.4512946217137677    0.4945341071463347    0.3792317495519800
    0.5352560373910447    0.3749062053791749    0.4180577899095335
    0.3838997072272648    0.4265854657937472    0.3847430376903918
    0.4034612590761429    0.3423530540677727    0.3406399775287463
    0.5407778767667365    0.4632176598381991    0.3811165513447626
    0.4718329563310651    0.4054230961886743    0.3525902005160495
