Au40 rank 6
1.0
   29.0437614665641135    0.0000000000000000    0.0000000000000000
    0.0000000000000000   27.8709124609880803    0.0000000000000000
    0.0000000000000000    0.0000000000000000   30.1466989572500879
  Au
  40
Direct
    0.4490152111279700    0.5089649907741065    0.6464523799459206
    0.5450765966549521    0.5163013239542077    0.6495158869470607
    0.5034808210583142    0.4306744060433066    0.6240153394994371
    0.3943601637755800    0.5855530922165644    0.6703727291910777
    0.4880245527194896    0.5970227249285880    0.6686525671268616
    0.3655522924795010    0.5297008431971149    0.6005860395808774
    0.5979143697962127    0.4480950367858517    0.6075166245827406
    0.5784130962356876    0.6087602786486743    0.6576573009597529
    0.6248546024319602    0.5425090327580199    0.6038669452599204
    0.5251111354408687    0.6366376181444424    0.5867790264555462
    0.4381091266772720    0.5970943252122817    0.5876255361497058
    0.6250854013223355    0.6417472430262948    0.5858215715746898
    0.5571471888478361    0.3598187506185995    0.5929357652318534
    0.4170258152571152    0.4425501385255658    0.5870286073339431
    0.4939569571047068    0.5079014573690718    0.5612708426008923
    0.4724342906210754    0.3670419050987960    0.5557002282758926
    0.6349544710123053    0.3828008954093352    0.5457952126159289
    0.6520183011988205    0.4788002850893103    0.5357409270130802
    0.3444519362386175    0.4699686141114052    0.5337291271264872
    0.6563149856510335    0.5779914707841031    0.5237102696076908
    0.4079201190827250    0.5430714221309055    0.5159813416115430
    0.3880382470069484    0.3836182763378737    0.5173799343090636
    0.5731003488999042    0.6379361491786310    0.5096932616700670
    0.5700982527425883    0.5298542966151915    0.5120701395690965
    0.4846396632880756    0.6014751211032214    0.5080518542550101
    0.5520640808181890    0.3679440266379274    0.5015660549351987
    0.5119631499693672    0.4626679222668295    0.4826998541678175
    0.4057850960475465    0.4616106630379369    0.4626968923651814
    0.6243328017274580    0.4220681563223795    0.4635411371365184
    0.4637599900260779    0.3791076303008772    0.4629106352069422
    0.6464761689933080    0.5169348210928361    0.4496288941904907
    0.6344344566679399    0.6159102394500749    0.4427961758933378
    0.4602303336343579    0.5403890404671167    0.4398850462117919
    0.5410690496179250    0.5922235538807441    0.4338811423369102
    0.5453318701020375    0.3978950040028360    0.4150569130723428
    0.4646476482208118    0.4491481883994497    0.3938978368480164
    0.6083582158013409    0.4637108906114732    0.3825536467555239
    0.6102624629416636    0.5615250906570592    0.3719029756156036
    0.5239838965646654    0.5225854406620111    0.3727504526261713
    0.5346786010912981    0.4360740817327031    0.3311143069691128
