Au40 rank 18
1.0
   28.7683203311529780    0.0000000000000000    0.0000000000000000
    0.0000000000000000   29.2383447378418779    0.0000000000000000
    0.0000000000000000    0.0000000000000000   30.1057369230986822
  Au
  40
Direct
    0.4820958223383751    0.4284763554324748    0.6672996822431074
    0.5271310320200281    0.5739816565468387    0.6399691699629836
    0.4563901089495854    0.5119924206081163    0.6347526327386053
    0.5529646658065573    0.4826109849207635    0.6386901701287387
    0.4596421141401048    0.3525004710560777    0.6182059359732928
    0.4084039331524493    0.4357243099104765    0.6097355904596079
    0.5474944345404471    0.3936611432615852    0.6094761829426177
    0.6023103450518841    0.5454046789951580    0.5908811692870745
    0.4576276444323585    0.5875422376542622    0.5777842305689425
    0.6063516388134417    0.4548986370771265    0.5668890335417844
    0.3935667781326476    0.5190461211703058    0.5653792816452321
    0.5460393658466094    0.6198695604786710    0.5629179651871427
    0.5036373142039172    0.3465904853454786    0.5386244010238163
    0.3477410708932758    0.4401324524103762    0.5401276381155057
    0.4105155283062729    0.3706595815608652    0.5415796850480320
    0.5950027421547676    0.3679263532577723    0.5339302938073847
    0.6368493200651038    0.6114622865914048    0.5370006040015025
    0.4006925561952408    0.5886167076356592    0.5050450834058560
    0.6375533230124373    0.5214329437513233    0.5087921539876055
    0.4789285663018948    0.6431900856733430    0.5040370444989147
    0.4496993111271081    0.3415045554856225    0.4632381315318231
    0.5696869511768795    0.6367471097944543    0.4747975275328509
    0.6524378806754613    0.5947486679601690    0.4487961634649839
    0.3891983713511187    0.4150285651752951    0.4604876866027368
    0.6079421679160771    0.4397705019642361    0.4754022382237261
    0.4094175707729436    0.6591586601049720    0.4438310017355709
    0.3664297191148434    0.5053894777758624    0.4775351384865093
    0.5380330221057182    0.3793740228210983    0.4587544504200804
    0.6189713504465915    0.5123793611131030    0.4189317529355929
    0.5003966396971680    0.6458714916939683    0.4128026580320634
    0.3851109323812901    0.5713770025731315    0.4160163259147243
    0.4665475581912423    0.4135255717458164    0.4060431637174147
    0.5781973531190202    0.5964593828813683    0.3926404404285267
    0.3998755008663603    0.4795726074788851    0.3956164688730336
    0.5561435080162086    0.4458961208339254    0.3975108962490769
    0.4259379550160023    0.6348590605965958    0.3572340651121207
    0.5013933687636373    0.5815513051277971    0.3418071551027737
    0.4844417553738801    0.4869083847676786    0.3524533523999688
    0.5730825580957561    0.5199217981685124    0.3387626957179500
    0.4125412270043206    0.5455338915893412    0.3311320712790299
