Au
 1.0000000000000000
    30.2709146979999986    0.0000000000000000    0.0000000000000000
     0.0000000000000000   27.8423406080000007    0.0000000000000000
     0.0000000000000000    0.0000000000000000   30.2005099689999987
 Au 
  40
Cartesian
 16.1029400000000003 11.4350500000000004 20.2401899999999983
 18.0611999999999995 13.0081500000000005 19.1463700000000010
 15.2109000000000005 13.6400600000000001 18.8216199999999994
 13.8853100000000005 11.1889099999999999 18.5963299999999983
 17.1423300000000012 15.3470300000000002 17.8628099999999996
 19.8291800000000009 14.6682900000000007 17.7952000000000012
 14.4167299999999994 15.8551400000000005 17.3301499999999997
 12.8160600000000002 13.6077300000000001 17.3867800000000017
 16.4953000000000003 11.2643400000000007 17.5218899999999991
 16.3322499999999984 17.7500900000000001 16.7871899999999989
 12.1376200000000001 15.7807099999999991 15.7601399999999998
 18.4543299999999988 12.8067899999999995 16.3512899999999988
 11.8673699999999993 11.1089199999999995 16.7693900000000014
 15.5857100000000006 13.5982199999999995 15.9169099999999997
 18.5914399999999986 16.6001800000000017 15.8401200000000006
 11.0437700000000003 13.2086699999999997 15.2385900000000003
 14.0893599999999992 17.6768800000000006 15.2684400000000000
 14.4164800000000000 10.3656900000000007 15.9346800000000002
 20.2545199999999994 14.5734100000000009 15.0928799999999992
 13.5207700000000006 13.8397699999999997 14.0657399999999999
 16.8548499999999990 11.2174499999999995 14.7764199999999999
 16.6051199999999994 17.4867999999999988 14.0340000000000007
 11.8058700000000005 17.7924100000000003 13.7855200000000000
 12.4932200000000009 11.0412199999999991 14.0572099999999995
 10.7260899999999992 15.2827400000000004 13.4418000000000006
 11.1852099999999997 12.7780699999999996 12.4073700000000002
 15.9869199999999996 14.6371900000000004 13.4292300000000004
 18.5818800000000017 13.0259300000000007 13.5764999999999993
 18.6819300000000013 15.8730300000000000 13.1869399999999999
 14.9394600000000004 10.0247100000000007 13.2650100000000002
 14.2573399999999992 17.5675999999999988 12.5015099999999997
 17.9797699999999985 14.1494400000000002 11.1356199999999994
 13.7575000000000003 11.9737200000000001 11.6888500000000004
 16.5563900000000004 16.5301499999999990 11.4097500000000007
 11.8964499999999997 16.6763300000000001 11.2854299999999999
 10.0150000000000006 14.6838300000000004 10.7982899999999997
 16.5175699999999992 11.9215300000000006 12.0958000000000006
 12.6390399999999996 14.1373999999999995 10.3494499999999992
 14.2518799999999999 16.4155100000000012  9.9488800000000008
 15.3247300000000006 13.9490099999999995 10.5529200000000003
