Au
 1.0000000000000000
    30.5517583550000005    0.0000000000000000    0.0000000000000000
     0.0000000000000000   28.1150409809999999    0.0000000000000000
     0.0000000000000000    0.0000000000000000   28.5374117849999998
 Au 
  40
Cartesian
 15.6035299999999992 10.0003700000000002 18.5929099999999998
 16.1433000000000000 12.7139900000000008 18.5149399999999993
 18.8391400000000004 12.9015100000000000 17.8648899999999990
 13.6555499999999999 11.7990300000000001 17.7546299999999988
 14.3026999999999997 14.5793400000000002 17.6222999999999992
 17.0460799999999999 15.0022000000000002 17.3758699999999990
 17.3906799999999997 10.8595199999999998 16.6943500000000000
 11.9571600000000000 13.5631100000000000 16.5205599999999997
 12.5094600000000007 16.2645400000000002 16.4145600000000016
 19.6989500000000000 14.9278800000000000 16.2907000000000011
 15.2351700000000001 16.7382600000000004 16.1832400000000014
 14.8482900000000004  9.9800400000000007 15.9225600000000007
 12.2789699999999993 10.9908400000000004 15.4376099999999994
 17.9127900000000011 16.9527800000000006 15.5645299999999995
 14.5304599999999997 12.7774099999999997 15.1146499999999993
 18.5973100000000002 12.6637199999999996 15.0465000000000000
 10.6614799999999992 17.9347299999999983 15.0876699999999992
 10.3136700000000001 15.2133299999999991 14.9880300000000002
 10.0815900000000003 12.5111500000000007 14.7211099999999995
 20.5902600000000007 17.0571899999999985 14.7384599999999999
 16.4836500000000008 14.5352399999999999 14.4614499999999992
 13.3757099999999998 18.1472499999999997 14.5789399999999993
 16.7149399999999986 10.9595099999999999 14.0236099999999997
 13.1956799999999994 15.0333500000000004 11.0408100000000005
 16.0336299999999987 18.1365100000000012 13.9303000000000008
 19.1827100000000002 14.9864700000000006 13.5406300000000002
 14.0601299999999991 10.4413999999999998 13.3184299999999993
 11.3928100000000008 11.0491600000000005 12.7945300000000000
 18.6704000000000008 17.7269199999999998 12.9522999999999993
 11.6922400000000000 16.5494699999999995 12.9306300000000007
 11.4414800000000003 13.8146000000000004 12.7084799999999998
 17.6931900000000013 12.9781399999999998 12.3709799999999994
 14.0958699999999997 17.5405699999999989 11.9624000000000006
 15.8997899999999994 11.1251999999999995 11.4065999999999992
 13.9123400000000004 15.1132600000000004 13.8598199999999991
 13.3582400000000003 12.2713000000000001 11.3200599999999998
 15.6198700000000006 13.6986799999999995 10.5734600000000007
 16.6516599999999997 18.1845999999999997 11.2432099999999995
 17.5295999999999985 15.5562500000000004 11.4113500000000005
 15.3065099999999994 16.2775199999999991  9.8014600000000005
