Au
 1.0000000000000000
    27.5260981600000001    0.0000000000000000    0.0000000000000000
     0.0000000000000000   29.1612500819999987    0.0000000000000000
     0.0000000000000000    0.0000000000000000   28.5934453859999991
 Au 
  32
Cartesian
 13.4060600000000001 12.5658600000000007 18.5498599999999989
 12.9502799999999993 15.2484300000000008 18.3966600000000007
 15.5677299999999992 14.2082999999999995 18.1132799999999996
 15.1253600000000006 16.9049699999999987 18.2291999999999987
 11.1490299999999998 13.4073300000000000 17.2236599999999989
 10.5732499999999998 16.0796999999999990 17.3174999999999990
 15.3820899999999998 11.7177000000000007 16.8528300000000009
 17.5464300000000009 13.3242200000000004 16.4252000000000002
 12.7978100000000001 17.6414700000000018 16.9857599999999991
 17.0091600000000014 15.9875100000000003 16.4640500000000003
 12.6197599999999994 11.2192100000000003 16.2968399999999995
 15.3177099999999999 18.1466500000000011 15.7997399999999999
 10.3658599999999996 12.0214499999999997 14.9832599999999996
 14.6019299999999994 10.0621399999999994 14.8468099999999996
  9.9175699999999996 14.7008600000000005 15.0404199999999992
 16.5877000000000017 11.9284099999999995 14.2890800000000002
 10.8879199999999994 17.3451099999999983 14.9122599999999998
 17.4471899999999991 14.5640400000000003 13.9884000000000004
 12.9872700000000005 19.1090799999999987 14.7001899999999992
 17.2937300000000000 17.2912399999999984 14.0955800000000000
 12.4630799999999997 11.1759100000000000 13.4601900000000008
 14.9677399999999992 18.2369599999999998 13.0241799999999994
 10.9422400000000000 13.3809699999999996 12.6814499999999999
 14.9734700000000007 10.8682400000000001 12.2729099999999995
 10.1117799999999995 15.9849700000000006 12.6530299999999993
 12.1990700000000007 17.7327100000000009 12.4697800000000001
 12.2001799999999996 15.2671100000000006 11.0554000000000006
 16.3282699999999998 16.0176900000000018 11.8868700000000000
 13.2470700000000008 12.7369000000000003 11.3321699999999996
 14.1430900000000008 17.2123699999999999 10.6497299999999999
 16.1845700000000008 13.2694799999999997 11.9196200000000001
 14.7335600000000007 14.6202400000000008 10.0677199999999996
