Au
 1.0000000000000000
    28.6341222980000012    0.0000000000000000    0.0000000000000000
     0.0000000000000000   28.4141852889999988    0.0000000000000000
     0.0000000000000000    0.0000000000000000   27.8068634440000011
 Au 
  32
Cartesian
 14.2327999999999992 13.6527799999999999 17.8233199999999989
 15.1721800000000009 16.2214600000000004 17.7781799999999990
 11.5818399999999997 13.2620000000000005 17.2814200000000007
 15.9748099999999997 11.6533999999999995 17.1519300000000001
 12.5631100000000000 15.8053299999999997 17.0716999999999999
 16.8530400000000000 14.2346100000000000 16.9409799999999997
 13.3464399999999994 11.3416700000000006 16.4594899999999988
 14.1516400000000004 17.7188599999999994 15.7292299999999994
 16.8065899999999999 16.7497499999999988 15.6495800000000003
 10.6418900000000001 14.8260100000000001 15.2447199999999992
 11.1295300000000008 12.0677900000000005 14.8637800000000002
 17.5890400000000007 12.2837300000000003 15.0346499999999992
 15.4215300000000006 10.4987999999999992 14.7360799999999994
 11.4969300000000008 17.4220599999999983 15.1402900000000002
 18.6050199999999997 14.8208199999999994 14.9252099999999999
 12.7972999999999999 10.0308600000000006 14.1234199999999994
 15.8376400000000004 18.3845300000000016 13.6828299999999992
 10.0291999999999994 13.5944099999999999 12.8811199999999992
 17.1375500000000009 10.9931999999999999 12.6655800000000003
 13.2130600000000005 17.9163999999999994 13.0701699999999992
 11.0457900000000002 16.1308399999999992 12.7719100000000001
 17.5054000000000016 16.3471000000000011 12.9428300000000007
 17.9923199999999994 13.5892700000000008 12.5617599999999996
 11.8278900000000000 11.6651500000000006 12.1562500000000000
 14.4831500000000002 10.6967300000000005 12.0770599999999995
 12.6597899999999992 16.7611199999999982 10.6543700000000001
 15.2883200000000006 17.0735199999999985 11.3466600000000000
 16.0713499999999989 12.6098099999999995 10.7341899999999999
 11.7814700000000006 14.1804100000000002 10.8651099999999996
 17.0529599999999988 15.1533200000000008 10.5248899999999992
 13.4625599999999999 12.1935400000000005 10.0281199999999995
 14.4015900000000006 14.7615900000000000  9.9831299999999992
