Au
 1.0000000000000000
    28.1431408699999999    0.0000000000000000    0.0000000000000000
     0.0000000000000000   28.3895792100000008    0.0000000000000000
     0.0000000000000000    0.0000000000000000   28.3420529310000013
 Au 
  32
Cartesian
 17.0785899999999984 15.3185699999999994 17.2570399999999999
 15.0404999999999998 13.6390600000000006 17.9699300000000015
 14.5605100000000007 16.3732100000000003 17.4421900000000001
 12.7027000000000001 12.1969399999999997 17.3023099999999985
 12.5583500000000008 14.7313500000000008 18.3216500000000018
 15.1754499999999997 11.0443200000000008 17.1144099999999995
 11.9265600000000003 16.6214699999999986 16.4475000000000016
 10.7799700000000005 14.0417699999999996 16.3619200000000014
 17.1180799999999991 12.7713800000000006 16.2621399999999987
 13.8896999999999995 18.3710099999999983 15.6988699999999994
 10.8134099999999993 11.4559899999999999 15.4693100000000001
 16.3397100000000002 17.1922199999999989 15.4076500000000003
 13.3354400000000002 10.4375699999999991 15.1834799999999994
 17.9232200000000006 14.9692299999999996 14.6792599999999993
 10.0186299999999999 15.9859200000000001 14.5952199999999994
 16.0652800000000013 10.7931299999999997 14.5409199999999998
 12.0798699999999997 17.5993800000000000 13.7996800000000004
 18.1263800000000010 12.4058399999999995 13.7458799999999997
 10.2225999999999999 13.4228900000000007 13.6620100000000004
 14.8098200000000002 17.9549100000000017 13.1573399999999996
 11.8049999999999997 11.1995400000000007 12.9334900000000008
 17.3321700000000014 16.9360099999999996 12.8719699999999992
 14.2550200000000000 10.0215700000000005 12.6416799999999991
 11.0269300000000001 15.6213300000000004 12.0788499999999992
 17.3655299999999997 14.3511399999999991 11.9786900000000003
 16.2187400000000004 11.7711199999999998 11.8928700000000003
 12.9698499999999992 17.3473900000000008 11.2264400000000002
 11.0668500000000005 13.0735299999999999 11.0833399999999997
 15.4428800000000006 16.1952600000000011 11.0387199999999996
 13.5843500000000006 12.0186899999999994 10.8980300000000003
 13.1045300000000005 14.7537800000000008 10.3715200000000003
 15.5867000000000004 13.6614500000000003 10.0191099999999995
