Au33 rank 14
1.0
   28.1756273772049184    0.0000000000000000    0.0000000000000000
    0.0000000000000000   27.7954070498350632    0.0000000000000000
    0.0000000000000000    0.0000000000000000   28.3890875376114806
  Au
  33
Direct
    0.6017971311722176    0.4642928888705550    0.6485840174976305
    0.5234777238868573    0.5178771285731317    0.6161921654982871
    0.5246683386999604    0.4172914929661526    0.6131865877922305
    0.4401360202484420    0.4682821371620968    0.5992756465761503
    0.6144397461849413    0.5301807940343159    0.5791690375114449
    0.4502803121305953    0.5638802829052338    0.5721541944356293
    0.4495359738792847    0.3719572795573711    0.5764472811566913
    0.5415893219661937    0.5939045313318227    0.5554512386756338
    0.6027076118196236    0.4320074873290971    0.5554421313331894
    0.3663857245391043    0.5173236188953095    0.5578863485139172
    0.5305190924805707    0.3737743211251879    0.5220145934942280
    0.3807545401658244    0.4234777012176129    0.5322367117077159
    0.4675491411122846    0.6402225040439238    0.5130677111491022
    0.6257689521996215    0.5933181657024845    0.5072398536052667
    0.3939866568356599    0.5812064398260258    0.4900171720460913
    0.6387203422404294    0.4962769812453870    0.4906563684585279
    0.4402222948369454    0.3577186306918432    0.4826899714311046
    0.5474412588227812    0.6253521755285039    0.4598102861377920
    0.5996200851290855    0.4089140081892586    0.4624784044516757
    0.3544517781228598    0.4930144747848207    0.4646191836071632
    0.5188240060950757    0.3655886533916566    0.4262200223375145
    0.3587583712486462    0.3978709003645000    0.4420410897835734
    0.4575874850031871    0.6125980200202051    0.4204640157164198
    0.6122818465664539    0.5621095234260787    0.4170831387091271
    0.3819769427209880    0.5568917978909920    0.3966350181259585
    0.6437081876394120    0.4714429980554330    0.3985695060311741
    0.4309406407152423    0.3663822747791840    0.3855420232220215
    0.4007314824997313    0.4621403302124805    0.3803348924067589
    0.5815461194608336    0.4054015334828624    0.3656317588608338
    0.4906722291618979    0.4353968122897039    0.3520229837270480
    0.5368415845808395    0.5972806771542699    0.3674287370545279
    0.4667225653784071    0.5309266710529025    0.3568590634947262
    0.5619267742123296    0.5034564553580814    0.3526509461540956
