Au
 1.0000000000000000
    29.5425304189999984    0.0000000000000000    0.0000000000000000
     0.0000000000000000   27.9157052020000016    0.0000000000000000
     0.0000000000000000    0.0000000000000000   28.8643497129999993
 Au 
  33
Cartesian
 14.5827100000000005 14.0574200000000005 18.8554700000000004
 17.0495599999999996 13.8145000000000007 17.8051500000000011
 12.5411300000000008 12.6084899999999998 17.8387300000000018
 15.2126300000000008 11.7404799999999998 17.4807200000000016
 12.7491800000000008 15.4838600000000000 17.4322100000000013
 15.4711099999999995 16.0905899999999988 17.2445899999999988
 10.4628099999999993 14.0742300000000000 16.8756899999999987
 13.1210199999999997 10.1899499999999996 16.6726300000000016
 19.5172899999999991 13.5158799999999992 16.6528099999999988
 17.4698600000000006 11.8145399999999992 15.8768100000000008
 17.8872299999999989 15.6225100000000001 15.8748400000000007
 11.0351300000000005 11.6652299999999993 15.6733799999999999
 13.6204099999999997 17.3573300000000010 15.6143099999999997
 11.1107499999999995 16.2270099999999999 15.3308999999999997
 15.3266799999999996 10.3767300000000002 15.0486100000000000
 16.2713700000000010 17.6293499999999987 15.1065100000000001
 10.0261300000000002 13.8324900000000000 14.1996500000000001
 18.6071999999999989 13.6419499999999996 14.0715800000000009
 12.7354500000000002 10.1811100000000003 13.9758099999999992
 17.0171099999999988 11.5392899999999994 13.1580800000000000
 12.1672799999999999 17.8981500000000011 13.3798800000000000
 17.1737099999999998 15.9008199999999995 13.1637699999999995
 10.5031199999999991 11.4193599999999993 12.9855900000000002
 14.7566500000000005 17.2294400000000003 12.8905100000000008
 10.2759499999999999 16.0667599999999986 12.6776900000000001
 14.9198000000000004  9.9907699999999995 12.3598700000000008
 17.6239699999999999 13.7199299999999997 11.5668500000000005
 11.1069300000000002 13.7141000000000002 11.6074900000000003
 12.7919999999999998 11.4718400000000003 11.4641000000000002
 12.7503600000000006 16.0463500000000003 11.3923500000000004
 15.3714499999999994 15.1930599999999991 11.1457800000000002
 15.4183199999999996 12.2902500000000003 10.9447299999999998
 13.3213699999999999 13.7566000000000006 10.0236400000000003
