Au33 rank 7
1.0
   27.9913902028648423    0.0000000000000000    0.0000000000000000
    0.0000000000000000   27.8558894943980349    0.0000000000000000
    0.0000000000000000    0.0000000000000000   29.8201465891369324
  Au
  33
Direct
    0.4895524946965529    0.5292397059915182    0.6635471683748967
    0.5318692986487275    0.4425380311874271    0.6463935827050733
    0.4399725133943280    0.4584228195020422    0.6167210490623217
    0.4159128987650780    0.5575450430642209    0.6100473901133221
    0.5725270191117336    0.5271815727598340    0.6129425879442867
    0.5061292056317721    0.6035686654979827    0.6057735200482656
    0.4971223784906213    0.3913372321175824    0.5753232003005688
    0.3582887932772298    0.4872076955379369    0.5758673122327614
    0.5909308199676904    0.4394789594986823    0.5734763794668590
    0.4287798031348836    0.6411931621045719    0.5626503514326268
    0.5931943064405626    0.6090141805147810    0.5659675122885784
    0.4101704208689904    0.4144422852391897    0.5375378611249650
    0.5706681263591408    0.3603282248201177    0.5234896751365067
    0.3679520096756555    0.5719218417131824    0.5294931699972204
    0.6243061494409509    0.5221548448872283    0.5339195626703382
    0.5148442832171819    0.6396362048844234    0.5178742825338631
    0.4804136800479827    0.3705755095729397    0.4858649546143722
    0.3576523556701271    0.4820865971066703    0.4847919854607934
    0.6184797672315211    0.4366897041046624    0.4843303665045769
    0.4291801011931690    0.6253521720312986    0.4724052076612868
    0.5937406977464105    0.5991304917076102    0.4755379713719821
    0.3997105584778570    0.4040270063473174    0.4465512870553472
    0.5617879941688402    0.3749019967345253    0.4330076423296478
    0.4342877812709769    0.5868127132316763    0.3867507911754793
    0.6425140139440829    0.5205819390480478    0.4443142913561314
    0.5148750505853119    0.6293745445730770    0.4270527180289218
    0.3581148129260430    0.5667743873935349    0.4387529069914795
    0.5754595789367080    0.4651279977584274    0.4013508961392104
    0.4839554928827611    0.4252277176337651    0.4047119299405144
    0.4095593443163163    0.4908994618768724    0.4040724815586824
    0.5790264829655252    0.5641305888456103    0.3891978676323259
    0.4971873170858861    0.5123575596475187    0.3655419297656204
    0.5118678588199138    0.6063640586568756    0.3356842526187745
