Au33 rank 9
1.0
   28.7553383825204705    0.0000000000000000    0.0000000000000000
    0.0000000000000000   28.8298225751256822    0.0000000000000000
    0.0000000000000000    0.0000000000000000   29.2583032109799177
  Au
  33
Direct
    0.4504344271508899    0.5261099741188433    0.6599789822955964
    0.5281810863275498    0.4923324298303164    0.6130632519903730
    0.5014793944347643    0.5845561824501250    0.6059096500213222
    0.4379254157462255    0.4638657874504402    0.5909618606549473
    0.4138692971977105    0.5567712404011625    0.5767488714113628
    0.5872375980531015    0.5563018278200953    0.5711730008817982
    0.5140430605615945    0.4119710632015656    0.5636820330881824
    0.5518240225460560    0.6434476097921652    0.5541066578188201
    0.5957238328234841    0.4628248827288233    0.5548838006995420
    0.4602957668146520    0.6278266795111209    0.5308326570597152
    0.3784128703494056    0.4884370652762295    0.5206028528587169
    0.6518537036810825    0.5235290797301371    0.5093632136935549
    0.5879695881190492    0.3809037014819106    0.5099735969897735
    0.4286342989355983    0.4058482169862341    0.5192330667782205
    0.3898723262951129    0.5789132085946868    0.4895770519093895
    0.6099456514969396    0.6060428496240289    0.4903852572163263
    0.4999563837535779    0.3484122066083173    0.4936361914139224
    0.5279925619357128    0.6523577020773730    0.4643275610774498
    0.6175071662110635    0.4526589018136523    0.4573832078963052
    0.3486237044906441    0.5159291000991374    0.4339757999061881
    0.4366205224061166    0.6448230883286776    0.4409622580634042
    0.3659078954272911    0.4240366518879593    0.4510372493125792
    0.6250666021163864    0.5400136082252142    0.4204522959137039
    0.5479481364423471    0.3948700570427644    0.4244909674458338
    0.4501276045175980    0.3896182165531815    0.4258395410816615
    0.4180917794027846    0.5650860164203625    0.3939772494360570
    0.5939238850854118    0.6289108656094587    0.4010784508756181
    0.4154440037782982    0.4696445314216127    0.3824046170064415
    0.4951091808650362    0.4262414768611663    0.3523274693071519
    0.5752014435112041    0.4712659172448963    0.3748969500244956
    0.5737177525801652    0.5587066142631693    0.3416666585224388
    0.5016493259893591    0.6095941401897540    0.3812282210971599
    0.4881982552701433    0.5203500060551441    0.3472779814326232
