Au33 rank 16
1.0
   28.9525944433345686    0.0000000000000000    0.0000000000000000
    0.0000000000000000   27.3805721747978552    0.0000000000000000
    0.0000000000000000    0.0000000000000000   29.0693265591336854
  Au
  33
Direct
    0.5453862376800570    0.5023526565666117    0.6544569397007894
    0.4603138988329173    0.4675428614242869    0.6306276385013865
    0.6196970949890125    0.4732434143904697    0.6035479412396332
    0.4854304500027989    0.5668163731115238    0.6158385543559909
    0.5404316615932799    0.4154364414685863    0.6032062752322690
    0.3958055209655059    0.5366379777643588    0.6074335997153361
    0.5772115189328680    0.5631090312626521    0.5847283206545215
    0.4551427749525924    0.3770451003761819    0.5912367407281612
    0.3878138001030389    0.4444647103777590    0.5707047396854878
    0.5186275473612424    0.6354789104926379    0.5565379590308047
    0.6023336943358200    0.4113216320095103    0.5322194168267177
    0.4295148887178139    0.6024193726753831    0.5443693616261756
    0.5167337521724357    0.3688291394601823    0.5202633739767190
    0.6301397748542303    0.5156591362297842    0.5198694377840659
    0.3661643585931577    0.5295442344818188    0.5183125762587004
    0.4207819504068674    0.3767421187072507    0.5046601410302455
    0.5774110888484431    0.5944597382797564    0.4936244581049583
    0.3464264472319893    0.4383303586202610    0.4869997260666845
    0.4818107066421495    0.3611972229334771    0.4333761472002001
    0.4859443220718299    0.6246864210811162    0.4690690432533098
    0.6539745641970557    0.4431424046217011    0.4600292823248655
    0.5728962643675416    0.3871852594862447    0.4457166467290118
    0.3960826752498969    0.5976990141579903    0.4561526457487519
    0.6129433604972906    0.5310088789264023    0.4281484523471884
    0.3951222572455199    0.4024825064304303    0.4158328217310517
    0.3861177809977996    0.5036304218309638    0.4263144842184641
    0.5480410904846565    0.5986687389049520    0.4041077946574371
    0.6107933580285021    0.4464444462036389    0.3774244020932857
    0.5373397385735914    0.5081831490440830    0.3671711835532122
    0.4608174808092203    0.5595996743728860    0.3973176107035819
    0.4501093405524224    0.4664624965282374    0.3649293541268169
    0.4444877934399460    0.3662420701986247    0.3439798012831304
    0.5284379039235136    0.4057944749002549    0.3609968892057328
