Au33 rank 8
1.0
   28.3612139478827245    0.0000000000000000    0.0000000000000000
    0.0000000000000000   29.1186940697564580    0.0000000000000000
    0.0000000000000000    0.0000000000000000   28.9519170929900369
  Au
  33
Direct
    0.4447310122466286    0.4354198307907196    0.6196984062888646
    0.5230104506106591    0.3898848749578142    0.5854874837228387
    0.5299304566068817    0.4577445789079994    0.6545247132251467
    0.4771194576264380    0.5286857762107627    0.6199882954216486
    0.3595324823292777    0.4257029990238190    0.5769937022601370
    0.3831856757884803    0.5103143819106192    0.6132473660095921
    0.5718673994965002    0.5224485565390313    0.5966962484791862
    0.6086203234317981    0.4342489337049429    0.6066859090687460
    0.5168606059487364    0.5955202862711207    0.5683359541961377
    0.4228651087694847    0.5701935634075256    0.5513331457705283
    0.6277424497760201    0.4836532791272586    0.5283307301908657
    0.4348849696392276    0.3732626778858213    0.5480034080124969
    0.5991637145110715    0.3893026450388680    0.5256842138423334
    0.5978120165909980    0.5712759638763411    0.5189490651393460
    0.3601280639724712    0.5031497890970212    0.5208179147840213
    0.5586236423641464    0.6577828161669027    0.5087708973818140
    0.5146890354914736    0.3493429941032203    0.4994540131142104
    0.4720177109995081    0.6194539181006880    0.4871537560922224
    0.3683352571879326    0.4120486630340227    0.4849021024705960
    0.6471384094228058    0.4314715094939877    0.4525631667508854
    0.4013945466167779    0.5626083073045069    0.4581232808416646
    0.6053553043672995    0.5155373767314526    0.4401925394160695
    0.5882913573874170    0.3573640911430008    0.4377600673061395
    0.4276541856507709    0.3431840061274550    0.4585171991286265
    0.5541466193961500    0.5949265284328278    0.4370893313911674
    0.3532468167240725    0.4859046847689145    0.4288910190281767
    0.5004378631878238    0.3725423744458664    0.4045122856054498
    0.5728019539494371    0.4395661980703575    0.3913870915132798
    0.4668539969774774    0.5951941308257902    0.3952619803440667
    0.4138847291846564    0.4175359815099046    0.3997976538469223
    0.5297733023805304    0.5241391575613393    0.3799686241523171
    0.4300447137614081    0.5110683132234273    0.3788667314210124
    0.4891802224899170    0.4452082533102675    0.3460875848199414
