Au33 rank 2
1.0
   28.8767407685250816    0.0000000000000000    0.0000000000000000
    0.0000000000000000   28.3579238625851957    0.0000000000000000
    0.0000000000000000    0.0000000000000000   28.3731729446889958
  Au
  33
Direct
    0.4473016169875862    0.5528968769333997    0.6373861838759950
    0.5413163622959487    0.4224272906272477    0.6466337909530460
    0.4545551230110512    0.4570562698881820    0.6353992694566835
    0.5348752195240957    0.5163932156799430    0.6267775145435239
    0.3837897893712507    0.5013078118401821    0.5857289564467933
    0.5100628852586888    0.5979169861267084    0.5802026464047024
    0.3917901312196266    0.4046128479925288    0.5852641850018180
    0.6005374406169181    0.4614058726861808    0.5802120901466392
    0.4149715513451261    0.5901812964770607    0.5550519136884404
    0.4818529487594588    0.3760151945664512    0.5845149908833295
    0.5967344280757410    0.5575705947901266    0.5674472080801564
    0.5771850965099521    0.3658236956889108    0.5772675810171981
    0.4735912528074649    0.6465890342037309    0.5050238556002771
    0.3470381301728718    0.5425424807590722    0.5070039249365963
    0.5641341588424263    0.6227892891914292    0.5021588486902454
    0.6365001930916011    0.5001585293014836    0.4983136986432211
    0.3613390651677260    0.4469586058422887    0.5051509034856021
    0.4291697062545569    0.3735965313897622    0.5022212129273155
    0.6075583883335282    0.4093488578856892    0.4978451321587961
    0.5225228055527512    0.3540100508598842    0.4993839440799330
    0.6552451662040173    0.5949611113665730    0.4991356531204897
    0.4123123945112681    0.5916051887374272    0.4566800702257263
    0.5730186434094521    0.3680746527378770    0.4189806502843522
    0.5931563554479029    0.5595608098494526    0.4331821264064819
    0.5059228777873697    0.6001607182708223    0.4265903133450506
    0.3796451315076632    0.5036172317729543    0.4252154142737801
    0.3874273285402761    0.4069317923607634    0.4222697354645711
    0.4774120913624704    0.3783794564621725    0.4172713655848584
    0.5961015855297664    0.4637883435176199    0.4175287195991017
    0.5281209634479077    0.5200284353012344    0.3763575451691487
    0.4475647485708348    0.4608826197811287    0.3704161620112089
    0.4402147507086048    0.5567709825964046    0.3715854618335363
    0.5335498358118879    0.4266405106768873    0.3533493318647698
