Au33 rank 3
1.0
   28.2763342510466664    0.0000000000000000    0.0000000000000000
    0.0000000000000000   28.4564925256923722    0.0000000000000000
    0.0000000000000000    0.0000000000000000   29.4958144645799543
  Au
  33
Direct
    0.4537841442264209    0.5721936140689741    0.6310953379787260
    0.5336694528508037    0.5251316417364181    0.6604745414878863
    0.4517424500357870    0.4759630907925834    0.6500839027005793
    0.3870019421385371    0.4336205550982314    0.5881932632162428
    0.3717159854510615    0.5213446790855485    0.6217387514847580
    0.5410018031978591    0.4399270667526882    0.6171943697988675
    0.5439937950765362    0.5977824256510756    0.6007334487615169
    0.4666075812400358    0.6481177831513673    0.5744356139649406
    0.4628857868225242    0.3848379203160960    0.6273159280831165
    0.5979800313001157    0.5142367967353892    0.5920058021399640
    0.3878944012350158    0.5930995812068819    0.5627923585837277
    0.4218788968939861    0.3526364702856715    0.5494722582564350
    0.5183011439750105    0.3735238851804476    0.5508338197982682
    0.6186041358914652    0.5952323739369521    0.5426724272534612
    0.5933116736195005    0.4340189613311638    0.5385331865929051
    0.6462991244014648    0.5087591031658111    0.5106391794874557
    0.5340375587339854    0.6279781456675529    0.5101256032280679
    0.3537224030165352    0.5042216937129306    0.5315813682601995
    0.3536692464045623    0.5825304884287532    0.4777393748823827
    0.3809206560051140    0.4196160874024601    0.4951440976237352
    0.4388101020000049    0.6286746687902752    0.4874918704115666
    0.4657328356838163    0.3698807003954200    0.4695370956170038
    0.5619154597086988    0.3795321488481099    0.4681011303671988
    0.5877437666600069    0.5655218325691017    0.4582545235770478
    0.5904566819841716    0.4683175278411812    0.4465626331596110
    0.3736288198607706    0.4979656989924247    0.4388606914948260
    0.5081230525034924    0.6083462432064471    0.4237973384745288
    0.4141834215726849    0.5829911040704837    0.4070010283510068
    0.5097123143895956    0.4316633547419036    0.4075347338922813
    0.4130566737232323    0.4163316561253286    0.4075974738999993
    0.5406026887511644    0.5225117883690200    0.3876905576309939
    0.4462787543355206    0.4978530095157697    0.3737856995369734
    0.4810789886144384    0.5804563677931447    0.3385199606784664
