Au33 rank 19
1.0
   27.8501006217189229    0.0000000000000000    0.0000000000000000
    0.0000000000000000   27.4993279459226514    0.0000000000000000
    0.0000000000000000    0.0000000000000000   29.4733861654482325
  Au
  33
Direct
    0.4613102938990444    0.6020552055206504    0.6606757021984418
    0.5311494486440900    0.5398288512172986    0.6346523476835034
    0.4362415539858423    0.5112690654169147    0.6213219914386503
    0.6029733392829092    0.4787745581745094    0.6144840837122885
    0.5099369818288284    0.4434273908099543    0.6131559311193417
    0.5139429222384830    0.6207405968862836    0.5799671073106291
    0.4161391581015301    0.5998801566806508    0.5795741508535537
    0.5964592053457050    0.5654691950203429    0.5670558444729163
    0.4227491699085184    0.4302357249559463    0.5694743334347939
    0.4936575728287048    0.3624888694647768    0.5612868300419648
    0.5842856818635516    0.4007671270072116    0.5607841238623158
    0.3733828680998685    0.5147378958471573    0.5479821529587259
    0.6418906077751431    0.4822904217429898    0.5300931585011942
    0.4599442704835769    0.6369457206090833    0.5018612390305299
    0.5581230616751626    0.6211382023993149    0.4973694385323972
    0.3607662039816616    0.4317596677689101    0.4980083333598974
    0.3665972952276937    0.6022034798999837    0.5017411174896033
    0.4436506317519418    0.3816721439282765    0.4840750422423692
    0.6396375009556302    0.5684230753366033    0.4836390735194296
    0.5419571391967194    0.3641222514548155    0.4804895996524230
    0.6362586392016035    0.3976912525726560    0.4828392725214544
    0.3581839179984097    0.5188100944212146    0.4530929051673925
    0.6271673324693944    0.4845927712380397    0.4351716205638527
    0.4157900936410612    0.6003477246143286    0.4222366184543100
    0.5067829276841646    0.6378231419404311    0.4201630085536631
    0.4032876229700543    0.4365389698489004    0.4145218680111819
    0.5759527608259727    0.5683768904948703    0.4136362725014625
    0.4925680074768526    0.3939461452780764    0.4039292149710945
    0.5893406192047115    0.3969648020125767    0.4024851626261139
    0.3940456154360573    0.5239599045891474    0.3675348774905457
    0.4885962009387631    0.5568987202477270    0.3690373253841954
    0.5550165580746282    0.4821604862220520    0.3708125615583211
    0.4648695381037050    0.4618706468943310    0.3433051288793137
