Au33 rank 15
1.0
   27.8013392256494534    0.0000000000000000    0.0000000000000000
    0.0000000000000000   27.5549441312839321    0.0000000000000000
    0.0000000000000000    0.0000000000000000   28.3853602749537828
  Au
  33
Direct
    0.4284711624512576    0.6123992421644726    0.6480769508881764
    0.4555889065662086    0.5168575744471666    0.6374295453120165
    0.5524665605611982    0.4994193053302544    0.6228153689215182
    0.4841182978523187    0.4256710946275838    0.6163218200675211
    0.5175127372223671    0.5925632148003790    0.6101599016080851
    0.5793688710484621    0.4037418109925113    0.6069185018490315
    0.3815644500004369    0.5560912198577611    0.5825935781001846
    0.3944044635273385    0.4579789729155082    0.5853513909110677
    0.6396667058248238    0.4775279513369227    0.5801649949737649
    0.4255911129879402    0.3634581991399121    0.5680872453557203
    0.5993875243777964    0.5665431163831621    0.5654401627793209
    0.4446838196396978    0.6332196577946057    0.5546690688838921
    0.5193347041266542    0.3670377447165384    0.5396779699565818
    0.5370666258521219    0.6323063781085924    0.5223826725150711
    0.3592163803642159    0.5047497592056455    0.5026622495418105
    0.6031793915144429    0.4148151695270690    0.5124979296790445
    0.3704669431760047    0.6029318075569462    0.4975373378896735
    0.3610056750542769    0.4068487418553218    0.5083252660304788
    0.6345830844607164    0.5077210390267912    0.4887794328125804
    0.4463708535932432    0.3715127055397801    0.4723400761408629
    0.6239921246630680    0.6058687596574970    0.4805050739726806
    0.4576592640375243    0.6252152725592599    0.4591315799315888
    0.5429440532034060    0.3712764921058582    0.4473995265533641
    0.4008679823188259    0.5492230844183766    0.4232042372199809
    0.5481420827661488    0.6356417028501971    0.4258005908988792
    0.3935853700729988    0.4474641196049528    0.4277337138629400
    0.5352001948098574    0.4824382799112196    0.3577427499319679
    0.6048291546547071    0.4468756860528184    0.4200529442647064
    0.5889705905269247    0.5457718522128454    0.4093935483812439
    0.5636191752152495    0.3869778393150243    0.3536550848270104
    0.4367821991468403    0.4926481641410625    0.3533892246198037
    0.4921844730002697    0.5678946111029001    0.3842467707962073
    0.4720664848916223    0.4053812341367116    0.3856762051049977
