Au33 rank 18
1.0
   27.8897791324962725    0.0000000000000000    0.0000000000000000
    0.0000000000000000   27.7682499235227240    0.0000000000000000
    0.0000000000000000    0.0000000000000000   29.1888615036305410
  Au
  33
Direct
    0.5387518433231384    0.4764664825025670    0.6578443581384420
    0.5112267094358537    0.4028078636582763    0.5917943462552600
    0.4464502594713274    0.4620371709957963    0.6382515406062161
    0.4915525346589964    0.5434651182951677    0.6004973481597353
    0.4169375936495266    0.4105942032517860    0.5646350684915518
    0.5890591269055370    0.5260206102651850    0.5911318511966722
    0.5444945140568183    0.5946465687091589    0.5378845485635854
    0.4021834046236803    0.5101287906802285    0.5698154817774487
    0.6053503177186876    0.4280762670179573    0.6063121984543498
    0.6402475234522015    0.4681847228118346    0.5285577483291868
    0.4452576360740179    0.5904418864097795    0.5304089851463325
    0.5790047382075709    0.3859910037462554    0.5246357430089292
    0.6374727182164246    0.5663223922210529    0.5192215456048529
    0.3579031164913605    0.4556366559576668    0.5012220121683062
    0.3879392024553541    0.3586690204216879    0.4919672265708522
    0.3593278713804456    0.5549963052299225    0.4987507292120653
    0.4850795799986359    0.3626613188552855    0.5092318817413838
    0.4994556003564067    0.6405686969175876    0.4674859863941508
    0.6375017950145553    0.4104359192447510    0.4530238463122018
    0.5841288833164970    0.5966192466081082    0.4475871892251300
    0.6376631457911125    0.5096450809396006    0.4418376250003524
    0.4216382176951133    0.5920039881933958    0.4359647136978840
    0.5481237151942706    0.3743137201601068    0.4357880727427194
    0.3608013843591485    0.4100128326324762    0.4167418387600011
    0.3696994232197154    0.5073603265417732    0.4178432812359695
    0.4515203814906704    0.3690812701253129    0.4198819829460130
    0.5082383339988765    0.5904952310518570    0.3863729202481518
    0.5904940184455320    0.4495195771687687    0.3801945767713620
    0.5941681294918875    0.5476191091649532    0.3662685429143568
    0.4279537363475860    0.4492073033376670    0.3614161386608339
    0.4280103039290900    0.5476455894638989    0.3518190077152048
    0.5117157012796346    0.4002069838757463    0.3520356701108511
    0.5124819319922523    0.4989202156021783    0.3413780781992023
