Au
 1.0000000000000000
    27.8221848869999988    0.0000000000000000    0.0000000000000000
     0.0000000000000000   28.8149749389999990    0.0000000000000000
     0.0000000000000000    0.0000000000000000   27.8458093740000017
 Au 
  33
Cartesian
 12.3167399999999994 13.5672800000000002 17.6823000000000015
 14.7410099999999993 14.8632100000000005 17.8615099999999991
 12.3932199999999995 16.3128600000000006 17.4612200000000009
 12.1624599999999994 10.9652899999999995 16.8472499999999989
 14.6395099999999996 12.1369900000000008 17.2886300000000013
 14.8187999999999995 17.5523899999999990 17.3644900000000000
 10.5563599999999997 12.7088699999999992 15.5220199999999995
 10.0338700000000003 14.9196799999999996 17.0105100000000000
 17.0080799999999996 13.4819399999999998 17.1964499999999987
 10.4111899999999995 17.3498100000000015 15.7948699999999995
 16.8672199999999997 16.0676999999999985 16.3726200000000013
 12.9440600000000003 18.2669500000000014 15.4957300000000000
 14.3519400000000008 10.0217799999999997 15.4902200000000008
 16.5040599999999991 11.6472599999999993 15.2224199999999996
 17.7810099999999984 14.0424699999999998 14.6146200000000004
 15.6251300000000004 18.0524500000000003 14.7810799999999993
 17.8051500000000011 16.6741300000000017 13.8687799999999992
 12.2055900000000008 11.0321400000000001 14.0524500000000003
 10.0171799999999998 15.0989599999999999 14.2214899999999993
 14.7840100000000003 11.0502199999999995 12.9967900000000007
 17.2765500000000003 12.1546400000000006 12.6564999999999994
 11.4197100000000002 17.3076399999999992 13.2567199999999996
 13.7081800000000005 18.7971000000000004 12.9317100000000007
 10.4018599999999992 12.7384699999999995 12.8205299999999998
 17.1197000000000017 14.7971199999999996 11.9861500000000003
 15.8004400000000000 17.2581500000000005 12.0887799999999999
 12.6861899999999999 11.8566099999999999 11.4696200000000008
 15.2108000000000008 12.9215300000000006 11.0163100000000007
 10.8839699999999997 15.2128800000000002 11.6106300000000005
 13.1475700000000000 16.7609099999999991 11.1779399999999995
 15.3190799999999996 15.4989200000000000 10.0609400000000004
 12.9407399999999999 14.2196400000000001 10.0225399999999993
 10.5214900000000000 12.9169900000000002 10.0863200000000006
