Au33 rank 1
1.0
   27.5495236614657735    0.0000000000000000    0.0000000000000000
    0.0000000000000000   29.1240567289286751    0.0000000000000000
    0.0000000000000000    0.0000000000000000   28.1069350186116367
  Au
  33
Direct
    0.5708796954005685    0.5156168615685432    0.6377213161184687
    0.4762489860112191    0.4822597403574377    0.6287051556599934
    0.5857834210009204    0.6077931654021983    0.6446871045110978
    0.4942256998231994    0.5751166792695573    0.6170101868801738
    0.4110453027061928    0.5385260079146275    0.5809917710475243
    0.5555040270188275    0.4245199209662179    0.6292581080505502
    0.6177693896906122    0.4660981624069174    0.5658413675414525
    0.4739104415685775    0.3942968766539534    0.5846957967023347
    0.3919137729918071    0.4469136203156488    0.5933300429112432
    0.6164911248871633    0.5610396753103083    0.5625869997389922
    0.5491570955086241    0.6325626137000107    0.5584504003618298
    0.5674894076717113    0.3836549041225273    0.5430373972987370
    0.4057543392446341    0.3985773388223934    0.5105895235849303
    0.3620576231615911    0.4858490474600795    0.5104070024748384
    0.4868044230251358    0.3446105324572712    0.5028535989112144
    0.3673413914424614    0.5788722576449773    0.5040177620637318
    0.4513814946227353    0.6157117668110088    0.5384531798155893
    0.6373206217228781    0.4189493341228319    0.4840997787642328
    0.6348605927656187    0.5129866854827245    0.4813825085404572
    0.5927636547270868    0.5994533830506957    0.4755570731760460
    0.5123841165395074    0.6556866545744718    0.4727606084103033
    0.5556784422552068    0.3814609401425379    0.4438532229122836
    0.3692274995041060    0.4352062132075719    0.4282215718632283
    0.4553127441117049    0.3885174157369099    0.4228436195266141
    0.3814433666893550    0.5284620795350478    0.4226318832337064
    0.4337094364898240    0.6096627239780389    0.4388919340078196
    0.6015289504807085    0.4585600240517533    0.4037694426372503
    0.6126235240780314    0.5509616977213196    0.3948227346375777
    0.5272052174386002    0.5990505439248491    0.3972617998819935
    0.4405510290827535    0.4676328446901447    0.3693492960409217
    0.5240245046723015    0.4175491220344652    0.3593079971390918
    0.5313733619548729    0.5113844018608120    0.3559705316719547
    0.4464798264878847    0.5603574176704854    0.3567216281782812
