Au33 rank 5
1.0
   28.9009077982786025    0.0000000000000000    0.0000000000000000
    0.0000000000000000   28.2419309033628210    0.0000000000000000
    0.0000000000000000    0.0000000000000000   28.4827778359501878
  Au
  33
Direct
    0.4566337020033772    0.5325284180358426    0.6340923265125110
    0.5496421217681806    0.5210627806811675    0.6173030713163659
    0.5764906851896863    0.4320019906780383    0.6497631344636866
    0.4878837036078795    0.4416916965796777    0.6182505672119920
    0.4094449884914311    0.4710593296977701    0.5744727938952519
    0.5038369857220653    0.5923908147550191    0.5730755429862332
    0.4084420716841122    0.5711622152396295    0.5620270640223708
    0.6160518307712388    0.4708171790845496    0.5703380434537537
    0.5522933290786851    0.3970486013608053    0.5611208855077843
    0.5894802780098473    0.5638135464939170    0.5402916176256802
    0.4576252545155019    0.3934828071702139    0.5408662035048623
    0.3464049924530628    0.5143233073509182    0.5174177316023300
    0.4479261410512022    0.6453423717338966    0.5161381464145255
    0.6533571185233142    0.5088846210063216    0.4928819294773475
    0.3810234993668976    0.4277544406881874    0.4919361975574826
    0.5371674561096343    0.6264940979588609    0.4884257184638154
    0.6060378250586671    0.4239930372454060    0.4847699010660133
    0.3860150725386737    0.5882513210669081    0.4679076939838753
    0.5250581315081263    0.3730749885249480    0.4731478971034186
    0.4341970733701567    0.3538454952023083    0.4567915782394690
    0.6085825527460252    0.5779281148551249    0.4450867377504904
    0.3663701992974694    0.5010880671729703    0.4248539895934361
    0.4619972438696333    0.6298865416629280    0.4232263788254401
    0.6175631280813447    0.4853766964185383    0.4074620391671226
    0.3890591399721262    0.4131315493791516    0.3956795946364890
    0.5507897334416328    0.6346210598298236    0.3931393102245466
    0.5764787947665964    0.3993881844640756    0.3965218329000139
    0.4830297771851856    0.4015850511261970    0.3870403973307634
    0.4026788529464806    0.5735761675899662    0.3737664740196360
    0.4400261755059696    0.4851698751949237    0.3580151137769080
    0.4938203233974569    0.5657403872627744    0.3527678840057190
    0.5886935129417314    0.5567927397743472    0.3505333552107869
    0.5350639564931593    0.4764967963982801    0.3539147674750109
