Au33 rank 20
1.0
   28.0865584449962142    0.0000000000000000    0.0000000000000000
    0.0000000000000000   29.1533550617163044    0.0000000000000000
    0.0000000000000000    0.0000000000000000   27.6219006342123947
  Au
  33
Direct
    0.4091298250437552    0.5401027507485811    0.6341964092136781
    0.4859340735050828    0.4792250394162743    0.6395935187376223
    0.3930867873435659    0.4490568821091499    0.6200698287748162
    0.5584069921039131    0.4195328750869928    0.6180360500985528
    0.4993228065874733    0.5705540691734938    0.6182105417579594
    0.5747258068470579    0.5109731398875589    0.6097159803576595
    0.4675306390528826    0.3951752716167322    0.5940390557396421
    0.4157412087261567    0.5944653999425492    0.5550772489379890
    0.3707857359114058    0.5103315090830643    0.5458602988576037
    0.5772132791160887    0.5960734729153324    0.5639683401295261
    0.6453374728248068    0.5308012299472709    0.5460229742469600
    0.5435419169229270    0.3748678699161271    0.5319036093519582
    0.6118195944117136    0.4436481326728590    0.5401845163736996
    0.4936788267189464    0.6483670332513951    0.5642217257028145
    0.3920776331671273    0.4191647972709440    0.5264198392297867
    0.4603683840219366    0.6249523002991632    0.4717162267993699
    0.4503348931074677    0.3452892189012101    0.5130117662854617
    0.3799703788934669    0.5697792978110493    0.4680154694964678
    0.6159116649131519    0.5851814723809653    0.4712209730606329
    0.3694845583671168    0.4761022829239851    0.4525558165185642
    0.5535257428700423    0.6546280497895304    0.4870597094010581
    0.6348164530619146    0.4918402642549574    0.4562941227692772
    0.5887320918118677    0.4085725373742315    0.4508604078803477
    0.4299760160385459    0.4031362709909243    0.4351845336820070
    0.3531361588138029    0.5369698588949502    0.3778922201079584
    0.5334580964232915    0.6003233084844142    0.4092151382212745
    0.4437494831337510    0.5712081886947570    0.3910470609608167
    0.5136682187362466    0.3507828928385522    0.4387184509228716
    0.6109878544680122    0.5510674415982727    0.3800557916720850
    0.4306135244085158    0.4782420685497784    0.3734814688204126
    0.5195955336680583    0.5179191632626352    0.3609397644429882
    0.5982100418017569    0.4591868649505237    0.3686989433535563
    0.5092571363552919    0.4252634611745669    0.3804257957760991
