Au33 rank 13
1.0
   27.5685002281392997    0.0000000000000000    0.0000000000000000
    0.0000000000000000   29.1860169240627485    0.0000000000000000
    0.0000000000000000    0.0000000000000000   28.0213118572267561
  Au
  33
Direct
    0.4249315531305136    0.5426056332730826    0.6417612911581698
    0.4802630335088998    0.4616160250595511    0.6419665821418772
    0.5797314920714806    0.4735450087324574    0.6416199756388536
    0.4429785485284566    0.3958769407992578    0.5798455020466313
    0.5227680272150704    0.5488921332497819    0.6339956015420625
    0.3832767210964718    0.4614040510979869    0.6160082370299094
    0.5407145492413706    0.3986865893912582    0.5983968529634033
    0.5552482439151000    0.6220344120401246    0.5835477866282064
    0.4588178298945498    0.5962637088913575    0.5697515770972561
    0.3839903965204539    0.5354254252435766    0.5515803997077399
    0.6062424442849507    0.5399327982045145    0.5766550327610838
    0.3705361302429886    0.4444095771312594    0.5220717776521506
    0.6231131295684573    0.4485715984613756    0.5582435103329199
    0.6045157363156455    0.3591521890356998    0.5368529950940019
    0.5053102936633338    0.3505994153630997    0.5202658849428339
    0.4108750111629800    0.3637092024741355    0.4933869145554678
    0.5086019447722876    0.6355717488650261    0.4973854219666544
    0.6057236573497946    0.6004848094824364    0.5022564546760245
    0.4303033288457273    0.5812551915197344    0.4763909841094975
    0.3625013993631431    0.5153103424819093    0.4585617035568668
    0.6379128943889039    0.5125741201297226    0.4873570239075391
    0.6287540768735265    0.4195792385871762    0.4644978730697311
    0.5715095894221511    0.3423266320230521    0.4463267439783765
    0.4037781501451887    0.4350670261720110    0.4285436760954101
    0.4803318201478426    0.3725355042607134    0.4242633878324630
    0.5745844555447649    0.6585756189985805    0.4293089859781539
    0.5047951965948480    0.5915505572574155    0.4097133092755446
    0.4411725998216834    0.5211999316773892    0.3996472140041553
    0.6040149496580316    0.5702472251991865    0.4098482294943460
    0.5622647140913334    0.4166777784461928    0.3874057154575045
    0.6304158777732226    0.4833818156868026    0.3941632724329118
    0.5368603672544997    0.5098819986721222    0.3705752324186033
    0.4712397285223073    0.4409727073469201    0.3574104799387658
