Au33 rank 12
1.0
   29.1530046759041852    0.0000000000000000    0.0000000000000000
    0.0000000000000000   28.8033947148551874    0.0000000000000000
    0.0000000000000000    0.0000000000000000   28.2906756438883704
  Au
  33
Direct
    0.4084043429522921    0.5267370650934023    0.6464973465321734
    0.5020618196092512    0.5419202817675031    0.6431205473966896
    0.4405525989259425    0.6124451959315929    0.6197956463950834
    0.4676725672497130    0.4538227099965933    0.6320271568461102
    0.5923692589986598    0.5584858283373232    0.6249129999684975
    0.5604563852387684    0.4689140110498352    0.6192543598658448
    0.5282642561770119    0.6185100211894959    0.5878272096393398
    0.4245723795244900    0.3823653431190482    0.5863586741606308
    0.5190054121660082    0.3911784898133340    0.5802844697815481
    0.3862728512709701    0.4677398155473210    0.5751262269023882
    0.3886874735843954    0.5624507924417287    0.5564751558802492
    0.6072338940653452    0.4111178253557111    0.5585582643843834
    0.6314810546524761    0.5021232113592720    0.5592129805700237
    0.4528451474177497    0.6273032851587407    0.5244553741928597
    0.6052553067558116    0.5942677908431581    0.5354760355282470
    0.5396429722073723    0.6524968062075819    0.4982751582059207
    0.4704651273033302    0.3483438733818965    0.5088876453988677
    0.4007404041503105    0.4125296058587937    0.4959718163571423
    0.5512611299710228    0.3883426160243104    0.4838964344554116
    0.3595120132856329    0.4994400000619441    0.4893524655260809
    0.3964801793600739    0.5848447190386680    0.4620713733911782
    0.6198838529083263    0.4534078523245456    0.4727981917080429
    0.6568857476055636    0.5421130320122015    0.4753498396274932
    0.4859102802738081    0.6060919453277831    0.4342426447024341
    0.5803136056658401    0.5895161485512761    0.4396316501147703
    0.4711441252176299    0.4000811997993575    0.4288708094410533
    0.6146489687068694    0.5121340336501172    0.3944776817694537
    0.3420533787791605    0.5346056359673779    0.3999642855314648
    0.4342399168327533    0.5449746359350138    0.3820728218938564
    0.5530757956679551    0.4418678001308458    0.4037380981148518
    0.5266204273134905    0.5379950474903067    0.3788169830327568
    0.3982538207987378    0.4578269345004986    0.4109922308895161
    0.4750376612633027    0.4621151372404241    0.3546548942947228
