Au
 1.0000000000000000
    29.1145539400000004    0.0000000000000000    0.0000000000000000
     0.0000000000000000   27.7750184319999995    0.0000000000000000
     0.0000000000000000    0.0000000000000000   27.5675913090000009
 Au 
  33
Cartesian
 16.6846099999999993 13.2405200000000001 17.5573200000000007
 13.9683299999999999 12.9021399999999993 17.4302700000000002
 12.4111600000000006 15.1564200000000007 17.2685899999999997
 15.1140699999999999 15.4666700000000006 17.2108999999999988
 13.0497399999999999 10.5926500000000008 16.2726900000000008
 11.5259999999999998 12.8609000000000009 16.0569799999999994
 15.7339699999999993 11.0766600000000004 16.1763100000000009
 17.5950999999999986 15.2259300000000000 15.9013700000000000
 16.0967799999999990 17.5184899999999999 15.7156099999999999
 13.4269200000000009 16.9498399999999982 15.4609000000000005
 17.9431800000000017 12.4901499999999999 15.2456099999999992
 11.1981500000000000 15.4095499999999994 14.8371399999999998
 10.0476799999999997 13.1318099999999998 13.7914800000000000
 11.7768599999999992 11.0352599999999992 13.8856400000000004
 14.3702600000000000  9.9772200000000009 13.9494699999999998
 17.0989399999999989 10.2247900000000005 13.9626900000000003
 19.0760100000000001 14.4540600000000001 13.7288599999999992
 17.5325300000000013 16.7098699999999987 13.5234500000000004
 14.9145099999999999 17.7913899999999998 13.2703600000000002
 12.2109400000000008 17.2521500000000003 13.0403599999999997
 10.5628399999999996 15.1874099999999999 12.1263600000000000
 18.0017800000000001 12.3010800000000007 12.4174500000000005
 11.5795200000000005 12.6499100000000002 11.5513399999999997
 15.7584900000000001 10.7873699999999992 11.6346200000000000
 13.0712200000000003 10.3654299999999999 11.5628600000000006
 16.4898200000000017 17.2606199999999994 11.0722199999999997
 11.1104099999999999 17.2628100000000018 10.4576300000000000
 16.7575299999999991 12.7270900000000005 10.0079300000000000
 17.7841099999999983 14.8858899999999998 11.3511799999999994
 13.8137100000000004 17.2736699999999992 10.7531900000000000
 14.0296000000000003 12.5704300000000000 10.2446900000000003
 12.5383899999999997 14.8547700000000003 10.1828500000000002
 15.2916100000000004 15.0297599999999996  9.9863199999999992
