Au33 rank 4
1.0
   28.3508734172377750    0.0000000000000000    0.0000000000000000
    0.0000000000000000   28.2774563748423482    0.0000000000000000
    0.0000000000000000    0.0000000000000000   27.8642132255924402
  Au
  33
Direct
    0.5381499806252948    0.5057659396085700    0.6412778910734597
    0.4722257554278175    0.4343961316214177    0.6373999096644368
    0.5066079790254576    0.5973224564575489    0.6324459570687975
    0.4422518511709651    0.5251363135730994    0.6253348428182480
    0.6276371592539707    0.4867476587468291    0.6091231516613093
    0.5608337689162209    0.4165064709240829    0.6046599398963388
    0.5915951835243835    0.5744831468282974    0.5918617724952172
    0.4045910250131656    0.4491991147721601    0.5693576657605902
    0.3657017338039209    0.5397389903513592    0.5686734232904594
    0.4772879231000583    0.3862149606870933    0.5521055107699305
    0.4360443293580923    0.6048727271848260    0.5654381094151031
    0.5279783163760804    0.6352953165944097    0.5441796401869304
    0.5655542114544083    0.3540481646995144    0.5314160419399134
    0.6279969801585314    0.4292711770412697    0.5305404651772369
    0.6423928756100912    0.5264328687638512    0.5204385539238552
    0.6171895926043225    0.6196378938011953    0.5094341977410083
    0.3535691421813519    0.4822428037328798    0.4911426943700102
    0.4187104851048289    0.4128236353928426    0.4782122387499246
    0.3951719090667090    0.5703256744569276    0.4784606685699690
    0.5049634839484887    0.3716470778519826    0.4569350157681428
    0.4556174055255505    0.6454608817411631    0.4790373977325627
    0.6037883923943905    0.3805529082921388    0.4471006824037166
    0.5441107251023742    0.6287364704673770    0.4453408685990228
    0.6472625112310084    0.4697499596069789    0.4421695447121823
    0.6173772013380799    0.5623079017165200    0.4307200364471115
    0.4121220748002019    0.4967421490915572    0.4152712966382342
    0.4511982897204429    0.4138512180884519    0.3866518036803563
    0.4621276735213118    0.5796655929587633    0.4069165253095996
    0.5947482970323125    0.4956211934450901    0.3607469391817212
    0.4951273163486540    0.4973536494510649    0.3625880294087724
    0.5451914742425883    0.4120443329708370    0.3740698099008915
    0.6424307275917348    0.4113010351863597    0.3625023397691714
    0.5479314893497675    0.5785161607964514    0.3629050507694938
