Au33 rank 11
1.0
   28.0198064836480114    0.0000000000000000    0.0000000000000000
    0.0000000000000000   28.0482931407642653    0.0000000000000000
    0.0000000000000000    0.0000000000000000   28.9834392878106470
  Au
  33
Direct
    0.4796282756784784    0.4681992313630295    0.6358953068503908
    0.3826036396979899    0.4531302468605524    0.6544099428011144
    0.4125512230303353    0.5378765095580348    0.6172912611879535
    0.5101366798616994    0.5570011194923130    0.6091766043720067
    0.5227050226321417    0.3880515797474241    0.6006687135790312
    0.5661618994951511    0.4761357420414108    0.5918946846221633
    0.4418458184689558    0.6214237913137539    0.5808981130184410
    0.4253607038462974    0.3996434201863666    0.5869554910135297
    0.5993397921306159    0.5657831698244367    0.5729173186230011
    0.3641589684708423    0.4731859998639820    0.5616189835531272
    0.5287306248344832    0.6245594521226415    0.5385220296534192
    0.3784568719894897    0.5662344446646973    0.5310494240397311
    0.5772048065880039    0.4058712463538370    0.5250599213644978
    0.4810120933147948    0.3650349241018999    0.5179888499871481
    0.6205606402282420    0.4927748880863680    0.5135480973668018
    0.3922380887699592    0.4038148733547396    0.4984366866578626
    0.4423706743723432    0.6298513199844296    0.4871621769044261
    0.5999937159091696    0.5887914293477911    0.4816745788919464
    0.3554288208271041    0.4934657501778481    0.4707534735743820
    0.5462996581764770    0.3558290013051161    0.4498481129196515
    0.3727513581166335    0.5840793636083939    0.4385275410369517
    0.5283364216807633    0.6435815932611942    0.4453451884185897
    0.6043451690325438    0.4338830010204422    0.4378026184948766
    0.6427660413606896    0.5237462581391286    0.4266059682022632
    0.4524405727089219    0.3743392130675212    0.4272870273894120
    0.3659922447953408    0.4207991601742813    0.4096527524896615
    0.4628056928035812    0.5867856081399980    0.4010057715811514
    0.5605358929960580    0.5697965291002158    0.3934065719717411
    0.4017286774907686    0.5102523676917823    0.3851842546389688
    0.5294150472405499    0.4135431029371747    0.3762375841960450
    0.5908394698215224    0.4856487811978901    0.3556121474791148
    0.4952971055020076    0.5078476281816138    0.3538207737674088
    0.4389879758899686    0.4281153865827348    0.3474835910345969
