Au33 rank 17
1.0
   29.1304208471107415    0.0000000000000000    0.0000000000000000
    0.0000000000000000   28.5440885303592538    0.0000000000000000
    0.0000000000000000    0.0000000000000000   28.0772871206419268
  Au
  33
Direct
    0.5255416793249187    0.4392268604228107    0.6420116220016618
    0.5309429765923631    0.5303433502241843    0.6206023300984108
    0.4463148600418171    0.5728103190300843    0.6256366342882289
    0.4435862748578320    0.4778839410365093    0.6155134376990145
    0.4673979706869232    0.3900279149358081    0.5822522190230371
    0.5221038156105350    0.6207567537227939    0.5896905772557373
    0.5634720511664195    0.3750727998515015    0.5830784007574326
    0.3892287551676082    0.5343402121654633    0.5583463063846712
    0.5886533282631723    0.4692471185773173    0.5724627592773535
    0.3911624818934948    0.4373201676166599    0.5457717731504834
    0.4404635167402779    0.6145796965131622    0.5384094979631979
    0.5829936114487202    0.5619304436483467    0.5440244298826666
    0.4209610428321493    0.3550201591003985    0.5060335486803748
    0.5147718240218536    0.3509606680831246    0.5039451277713114
    0.3425978739061578    0.4939654524691797    0.4855527657932741
    0.5970948710714482    0.4055226814950388    0.4983781813657067
    0.5291299450777781    0.6251409618022150    0.4933569741226584
    0.3855021499277789    0.5774247829713179    0.4682630127624720
    0.6267901656400869    0.4966893903721418    0.4885720000790797
    0.3859717399612671    0.4196832115880751    0.4446570970644216
    0.4490792849940606    0.6480740870651989    0.4486682038843285
    0.5955723628657181    0.5787700650551266    0.4461896359417872
    0.4661038539921094    0.3709248792601238    0.4211604104950923
    0.5597709336083013    0.3622886254636411    0.4194283734703594
    0.3847719656642028    0.5065598058998816    0.3991210676823093
    0.5130539371529075    0.5948725883386501    0.4003201639546130
    0.6101345181358854    0.4415005502183130    0.4076624883407574
    0.4196390875167211    0.5918259715579900    0.3757181537472794
    0.6585705162830463    0.5236877222277209    0.3997467764883955
    0.5217937067348867    0.4347673100864397    0.3690350219152239
    0.4281532576526692    0.4324977333551528    0.3575060822127807
    0.5666616280184359    0.5205987998848211    0.3719511605801648
    0.4743780333175108    0.5166670702063825    0.3568682923233991
