Au
 1.0000000000000000
    29.8362692329999994    0.0000000000000000    0.0000000000000000
     0.0000000000000000   27.9705511119999990    0.0000000000000000
     0.0000000000000000    0.0000000000000000   28.5642292449999999
 Au 
  33
Cartesian
 15.6857600000000001 14.7396499999999993 18.3048800000000007
 13.3526399999999992 15.7644099999999998 17.1760400000000004
 18.1315999999999988 15.6088100000000001 17.3127899999999997
 17.9245699999999992 13.1730999999999998 18.5838299999999990
 13.3658999999999999 13.2835800000000006 18.3278800000000004
 15.6394300000000008 11.8811900000000001 17.9180199999999985
 15.8112499999999994 17.0561299999999996 16.8305299999999995
 19.8471299999999999 13.4846100000000000 16.6725299999999983
 11.7307500000000005 16.0781099999999988 14.8731200000000001
 11.6944499999999998 13.6812900000000006 16.2537699999999994
 13.4150799999999997 11.4851799999999997 16.2267000000000010
 17.9616199999999999 11.4826099999999993 16.3627000000000002
 13.5587400000000002 17.9441999999999986 15.5532500000000002
 19.5610299999999988 15.4542999999999999 14.8524200000000004
 15.7052099999999992  9.9825199999999992 15.9507800000000000
 18.1714300000000009 17.6978299999999997 15.5719999999999992
 19.1900900000000014 12.6749399999999994 14.1544899999999991
 17.1879700000000000 10.8115000000000006 13.8030700000000000
 12.0465699999999991 12.2118300000000009 13.9080600000000008
  9.9953199999999995 14.0558300000000003 14.1187000000000005
 14.3005499999999994 10.7057900000000004 13.7287499999999998
 15.8768700000000003 18.0881700000000016 14.1651100000000003
 18.1052099999999996 16.8935999999999993 12.9447700000000001
 13.5547000000000004 16.9926899999999996 12.9653299999999998
 12.1347000000000005 14.6504999999999992 12.5026799999999998
 19.5390499999999996 14.6320300000000003 12.2562200000000008
 17.8838599999999985 12.5219000000000005 11.7288800000000002
 13.6711100000000005 12.5104799999999994 11.6984999999999992
 15.7944499999999994 10.7305100000000007 11.4582899999999999
 15.8235899999999994 17.4434399999999989 11.5004600000000003
 14.3803400000000003 15.1401500000000002 11.0725899999999999
 17.2003100000000018 15.1575399999999991 10.9445300000000003
 15.7790300000000006 13.0500200000000000  9.9836799999999997
