Au33 rank 10
1.0
   28.4413684710849708    0.0000000000000000    0.0000000000000000
    0.0000000000000000   28.1501158148090838    0.0000000000000000
    0.0000000000000000    0.0000000000000000   29.6037713060618373
  Au
  33
Direct
    0.4993492929913016    0.4575064309934958    0.6626542476859130
    0.5466549091305215    0.5410582201277661    0.6578417271240204
    0.4544076689715781    0.5389238738757171    0.6274361666713375
    0.4243025151747265    0.4492209022605548    0.6051727611172832
    0.5780964003773739    0.4658454525122084    0.6049096041309495
    0.5116424472453435    0.3955928518844337    0.5933745403463248
    0.5174994922656807    0.6095508681504008    0.5990444217224057
    0.6039601392734754    0.5602429367658273    0.5872383553850412
    0.4260911265401056    0.3620472879533471    0.5653775559395345
    0.4254842494594072    0.6139427640963454    0.5744118432971498
    0.3877844923877046    0.5261829080137279    0.5598983595650044
    0.5823445372473119    0.6442083388748610    0.5402585327993127
    0.5849962016907612    0.4028215768132298    0.5335133792316802
    0.6331815696540273    0.4880082549593763    0.5317046898295896
    0.3781501994198977    0.4362773250476606    0.5237726120807962
    0.5028555189989061    0.3547087694700850    0.5093659969659260
    0.6477630031017997    0.5811616064260848    0.5067825323229008
    0.4922444035463182    0.6336448253912499    0.5092004083345056
    0.4127085978532417    0.3614241746767216    0.4730501278819654
    0.4080505619530739    0.5913410696555096    0.4864098647393185
    0.6407866886314025    0.4294340728668123    0.4589598411967285
    0.3514809882496465    0.5137576919599400    0.4752768267687803
    0.5680811486446690    0.6041146647581001    0.4561156108028347
    0.5717086420975757    0.3639741802876670    0.4475999922735243
    0.6182363224220487    0.5213593959076942    0.4403073170895583
    0.4022538552995135    0.4462305982313464    0.4298771874490438
    0.4852777459149125    0.3954405838631318    0.4217160372953205
    0.4782500225222230    0.6059335269509315    0.4223599185048166
    0.5644805354017480    0.4500220670592354    0.4019228734089166
    0.4061689074160674    0.5413959598320263    0.4049413992682837
    0.5468944282999489    0.5454265625377058    0.3842956703730582
    0.4755378841557532    0.4781373264483695    0.3756482211649363
    0.4670289017098938    0.5672876272427461    0.3370461883459537
