Au33 rank 6
1.0
   27.9903007896992335    0.0000000000000000    0.0000000000000000
    0.0000000000000000   28.1930804386783436    0.0000000000000000
    0.0000000000000000    0.0000000000000000   29.6647720843748246
  Au
  33
Direct
    0.5424138346028079    0.5754091042957322    0.6626718826178825
    0.4544122382814578    0.5335988794697030    0.6612337049053462
    0.4470308655312548    0.4367318932251240    0.6592920348841926
    0.5360414661382783    0.4779863065185394    0.6595276778612916
    0.3810047042672559    0.5830000333788837    0.6238560685080776
    0.6093073300807431    0.5269725946707617    0.6143461571102873
    0.6079268552715010    0.4295677685572753    0.6173547608568359
    0.4727950054623657    0.6190171213845909    0.6131486446455811
    0.3830393384236212    0.4880208050984504    0.6084103563991168
    0.5168832090721232    0.3952877136231490    0.6079959502343348
    0.5650288948124363    0.6111916290615127    0.5792077500037311
    0.4237094156763416    0.4047568257169550    0.5741767052260590
    0.3998847465799616    0.6423322895476964    0.5531255657372018
    0.6420333960108238    0.5701726913951191    0.5385569086826026
    0.6395334092360038    0.4729000105810168    0.5402741039326049
    0.3653635195767180    0.5506885461634213    0.5361313256859129
    0.3574027389297448    0.4543577713737587    0.5256012551746674
    0.5812515488434844    0.3904150122012215    0.5364077082812989
    0.4906775270257179    0.3545527097270050    0.5276531427101819
    0.4930034294699547    0.6453303753484236    0.5257499102389069
    0.5741111757962991    0.6100268333057796    0.4850143836823715
    0.4319266736279566    0.4148829079337894    0.4796535638185723
    0.4150842494805692    0.6015146443241195    0.4722836631199742
    0.6194952862583116    0.5250988012861478    0.4601867119811291
    0.3974917969494288    0.5058588663479828    0.4576993449289450
    0.6215240026319930    0.4275039238184584    0.4611073664499599
    0.5267277621309836    0.4013318182750944    0.4551695593404964
    0.4962473836975148    0.6389443743486318    0.4341456265533535
    0.4523079153130548    0.5583576143826420    0.3993106325297227
    0.5076883575543916    0.5141128830725580    0.3368718251318195
    0.4671312282698551    0.4609123266674926    0.4065410262399172
    0.5536236968088268    0.5666418133496337    0.4041407746994264
    0.5660423148124352    0.4698390960069374    0.3987452029012545
