Au42 rank 2
1.0
   30.0192080556423733    0.0000000000000000    0.0000000000000000
    0.0000000000000000   28.9938663142570832    0.0000000000000000
    0.0000000000000000    0.0000000000000000   30.3633733957297878
  Au
  42
Direct
    0.5789113310780525    0.4853003315170474    0.6695087951613971
    0.6511985553648487    0.4530914291670255    0.6256638802298703
    0.5313092096717348    0.5545900031265835    0.6310821994810228
    0.4969771414454406    0.4601702347639784    0.6390230168665701
    0.4430320088796835    0.5352369595601910    0.6369224802366749
    0.5694285050692175    0.4059097081427937    0.6201413452176605
    0.6190383530185177    0.5424758437190772    0.6085227617887589
    0.4215680552529097    0.4605356857989213    0.5843219557425029
    0.4869098890245561    0.3941788676262019    0.5753659328277927
    0.4710236618004859    0.5965072887794445    0.5728222857563944
    0.3903285796792775    0.5492387694950899    0.5668240897662322
    0.6349035583987290    0.4005674794791330    0.5534841643166294
    0.5617637360842116    0.3451701438942516    0.5526291127668049
    0.5617018676268879    0.6000009435486171    0.5580053880750960
    0.6680505858198379    0.4914514532163139    0.5458305951652422
    0.6478085983002111    0.5819014708585069    0.5326605913553446
    0.3617169630898003    0.4763412255893802    0.5168301825057514
    0.4192288732213365    0.4018817019722495    0.5142432063204486
    0.4120441101840207    0.6144731674295197    0.5051421259560503
    0.3331394248314538    0.5651872179632871    0.4977397324412280
    0.4996032913516408    0.3656924525425013    0.4886278694171978
    0.5022601577850238    0.6303466615390264    0.4949728008386429
    0.6667765363650692    0.4331253329717850    0.4749520808889016
    0.5889046114607754    0.3828401966094971    0.4738186149346809
    0.5841679621047930    0.5984356528034837    0.4690145601522494
    0.6397318542147246    0.5228712544160432    0.4620494896623271
    0.3541569444770045    0.4144060323467536    0.4495110843021799
    0.3382379768089808    0.5046918704637043    0.4293325324987768
    0.4386642018584623    0.3889034904518203    0.4260100823014220
    0.4415639864790510    0.6548862724132610    0.4292626550491645
    0.3714299828929403    0.5954658952456111    0.4217411313555817
    0.6012865822205484    0.4528341759593889    0.4131382036675657
    0.5286517156482882    0.3948975880398838    0.4069810064152324
    0.5199543130262660    0.6125707977508689    0.4071200578279369
    0.5826871472566179    0.5438725671235471    0.3945321225375059
    0.3861981671983259    0.4489377428639809    0.3718665358036447
    0.4393761646269816    0.5950115339824804    0.3596065699872342
    0.5348009416418722    0.4733890464523399    0.3555734520285800
    0.3664424648857680    0.5385619023546705    0.3496173789538318
    0.4651606347169440    0.4130362807846114    0.3427353203194240
    0.4488398675669877    0.5045558468429043    0.3294248855001839
    0.5198523482345063    0.5632348145638409    0.3300610434240218
