Au42 rank 9
1.0
   30.9370721199484606    0.0000000000000000    0.0000000000000000
    0.0000000000000000   27.8764723886443662    0.0000000000000000
    0.0000000000000000    0.0000000000000000   29.8064797610790322
  Au
  42
Direct
    0.4580118313992014    0.5128481693148702    0.6654867894522509
    0.4856852935866530    0.4358565233642966    0.6146336185186477
    0.3976327805236244    0.4534235157895876    0.6303089076222155
    0.5356683311499659    0.5186079394137304    0.6186138079887143
    0.3892162466474417    0.5534973203484984    0.6213754661344726
    0.4733193650390095    0.5891027090561669    0.6094439513573425
    0.4239271718561586    0.3820581805028180    0.5711125526709754
    0.5700122045168057    0.4383944488058494    0.5815653392882398
    0.3214728125869923    0.4993145368580777    0.5941250486704014
    0.6106411384176333    0.5258637718487468    0.5699418763936900
    0.5539026579324957    0.6036449762564958    0.5766620102297251
    0.4029775061511613    0.6322498508562203    0.5693728627228155
    0.5104713076669385    0.3720123056636859    0.5500533292528238
    0.3377757862897347    0.4055622245383330    0.5805951687993047
    0.6397226446341749    0.4500723001858116    0.5196709593826169
    0.3558654412426077    0.5596983716018539    0.5316928374153298
    0.6343120201978806    0.6162793169363292    0.5424401386599572
    0.4841537935167333    0.6399606337506886    0.5297271535995360
    0.5953159694724436    0.3659684553070792    0.5264360034781184
    0.3622084781512088    0.3715461468726884    0.4998589973491700
    0.6649784954810661    0.5403582782751084    0.4942058868425787
    0.3396737417255031    0.4675493812871003    0.5057559135906936
    0.5635711767112691    0.6413749655194837    0.4898431616068296
    0.6456456195840192    0.6280343307110446    0.4524498224334891
    0.4126027007470289    0.6151602474521258    0.4798721909117827
    0.4489121097774121    0.3650338636436811    0.4829790509860841
    0.3779229973675677    0.5294817740741131    0.4468471977860564
    0.3974676327699219    0.4337329162529853    0.4397009642136509
    0.6779345743908197    0.4667681847746397    0.4369365228950404
    0.5338464135748823    0.3618245634301210    0.4604699140296308
    0.6187539602831327    0.3952532709263610    0.4423211280640874
    0.4921567171803579    0.6297322794091823    0.4376536813412844
    0.6472394155350623    0.5494605212500188    0.3994092813985707
    0.5740510428237886    0.6121842366760306    0.4011258338676364
    0.4757687200111450    0.4082032057065196    0.4038922630393303
    0.4224494978684847    0.5916201690403530    0.3924650951920355
    0.4425237495384426    0.4967601919692928    0.3860558166195916
    0.6163998471912077    0.4600283904732743    0.3704483604214058
    0.5027312707606174    0.5687564101456368    0.3638690797299209
    0.5584018058323140    0.3860547910203731    0.3754288088655767
    0.5246504347069986    0.4733434650467129    0.3544322294485464
    0.5842404041608922    0.5430662945143634    0.3360700056840087
