Au
 1.0000000000000000
    30.0192080560000001    0.0000000000000000    0.0000000000000000
     0.0000000000000000   28.9938663140000017    0.0000000000000000
     0.0000000000000000    0.0000000000000000   30.3633733960000001
 Au 
  42
Cartesian
 17.3752899999999997 14.0711399999999998 20.3256000000000014
 19.5477200000000018 13.1381700000000006 18.9978900000000017
 15.9500899999999994 16.0832900000000016 19.1626200000000004
 14.9171800000000001 13.3389799999999994 19.4033599999999993
 13.3018500000000000 15.5177800000000001 19.3375200000000014
 17.0937400000000004 11.7664500000000007 18.8305499999999988
 18.5843699999999998 15.7315699999999996 18.4791699999999999
 12.6540599999999994 13.3513500000000001 17.7430799999999991
 14.6163600000000002 11.4282400000000006 17.4689900000000016
 14.1393199999999997 17.2984000000000009 17.3942399999999999
 11.7173400000000001 15.9247300000000003 17.2103600000000014
 19.0593900000000005 11.6140899999999991 16.8066800000000001
 16.8643600000000013 10.0068900000000003 16.7780300000000011
 16.8610800000000012 17.3976499999999987 16.9425400000000010
 20.0529499999999992 14.2506599999999999 16.5738200000000013
 19.4463599999999985 16.8725099999999983 16.1724099999999993
 10.8597400000000004 13.8115000000000006 15.6933699999999998
 12.5845199999999995 11.6507199999999997 15.6140500000000007
 12.3690800000000003 17.8147400000000005 15.3383000000000003
 10.0000300000000006 16.3865499999999997 15.1125500000000006
 14.9987700000000004 10.6038300000000003 14.8361199999999993
 15.0766100000000005 18.2780699999999996 15.0286500000000007
 20.0153700000000008 12.5587800000000005 14.4207400000000003
 17.6787400000000012 11.1019900000000007 14.3864599999999996
 17.5356899999999989 17.3515599999999992 14.2414699999999996
 19.2024100000000004 15.1597200000000001 14.0292899999999996
 10.6319599999999994 12.0129000000000001 13.6492500000000003
 10.1555800000000005 14.6312700000000007 13.0373199999999994
 13.1695799999999998 11.2751300000000008 12.9347399999999997
 13.2554200000000009 18.9879800000000003 13.0328099999999996
 11.1505500000000008 17.2645400000000002 12.8059700000000003
 18.0508600000000001 13.1292500000000008 12.5420900000000000
 15.8707899999999995 11.4477700000000002 12.3555799999999998
 15.6090699999999991 17.7608999999999995 12.3612500000000001
 17.4923999999999999 15.7700099999999992 11.9779199999999992
 11.5930099999999996 13.0142699999999998 11.2913999999999994
 13.1895399999999992 17.2523499999999999 10.9176500000000001
 16.0546100000000003 13.7252500000000008 10.7967499999999994
 11.0011299999999999 15.6138499999999993 10.6175200000000007
 13.9644999999999992 11.9753000000000007 10.4060600000000001
 13.4736300000000000 14.6282599999999992 10.0060599999999997
 15.6047999999999991 16.3296600000000005 10.0218299999999996
