Au42 rank 20
1.0
   27.9970875970835777    0.0000000000000000    0.0000000000000000
    0.0000000000000000   29.0470203823958784    0.0000000000000000
    0.0000000000000000    0.0000000000000000   29.2831085179756982
  Au
  42
Direct
    0.5419320268761328    0.4729886621760434    0.6467155936191840
    0.6158508841867246    0.4120447254054652    0.6634529042504251
    0.4496526512025752    0.4446127315345166    0.6377473278128948
    0.5246149196032939    0.3791349473905774    0.6414152335179825
    0.5665232470655114    0.5605144026936109    0.6206311185368381
    0.6341369370331268    0.4896592004195496    0.6106659296606741
    0.4701452052668745    0.5366678837306095    0.6275889334240370
    0.4345780983602156    0.3543260902318714    0.6157534966171662
    0.6436377849020644    0.5668251745374223    0.5590973735185990
    0.3764299929040293    0.4231669672331484    0.5756053587132500
    0.3759376934463384    0.5060981006636910    0.6224029119298632
    0.5911297698853529    0.6438273504622997    0.5880356503238796
    0.4959003397899941    0.6177185919213382    0.5829841205293295
    0.5854056383785363    0.4142234293952401    0.5732326460124367
    0.5172247356542647    0.5554232730500912    0.4766406375170172
    0.4064885694967896    0.5809430440193207    0.5712899613869249
    0.4074937535972845    0.3501747966806487    0.5268584143952419
    0.6189658219679987    0.4854085853510490    0.5148292707296694
    0.3636312403833280    0.5035791760940165    0.5290595275074865
    0.6443776222867601    0.6495111917145774    0.5086164744104251
    0.5050291606960725    0.3647982946160898    0.5474987295349221
    0.5448786077980426    0.6486381013781299    0.5048672221493149
    0.4589851429697401    0.4818959997445701    0.4857775561743861
    0.4489399144368051    0.6259078194086517    0.4993979104115355
    0.5222436031171194    0.4976544200082026    0.5528676057963384
    0.5563835226571654    0.4173492652426376    0.4854670128711550
    0.3598683344731763    0.5886440793722971    0.4884943891916849
    0.3774417183796825    0.4246662881223609    0.4763560948223021
    0.6215184403268813    0.5671007453536279    0.4658998107635550
    0.4674282161847993    0.3817431687668160    0.4610879914566348
    0.6019723424882072    0.6546289670502499    0.4251367515985932
    0.5793793218428289    0.4895364733629866    0.4284448150407762
    0.3727270378434767    0.5113149668152155    0.4342228411793549
    0.5012921501927076    0.6395896886889390    0.4213276681024867
    0.5281588554750635    0.4170463585568939    0.3955835821729489
    0.4144891259560701    0.5962464018412912    0.4118755484394941
    0.4340545983633880    0.4457859357510382    0.3973968115160071
    0.5695699028077998    0.5718154894416020    0.3844857803701292
    0.5101960039311272    0.5005127894959676    0.3571661971898983
    0.4151915249429797    0.5250137325848162    0.3505974112265951
    0.5531923504648181    0.6573388612972660    0.3436350996749557
    0.4826265181240439    0.5916575085877752    0.3394544143280865
