Au42 rank 19
1.0
   28.3353935081005517    0.0000000000000000    0.0000000000000000
    0.0000000000000000   31.2464285302839997    0.0000000000000000
    0.0000000000000000    0.0000000000000000   32.2382061078216609
  Au
  42
Direct
    0.5503862917779103    0.5696080604457108    0.6435378174168686
    0.4509056043779408    0.5688625965294959    0.6467794945664392
    0.4370919572652993    0.6579630769911141    0.6344952116459635
    0.4993964204137750    0.4947637067703066    0.6278936844721276
    0.5043223288961076    0.6292582206125832    0.6894825186498121
    0.5930613279199358    0.5999769374206246    0.5712719722500906
    0.5870891037475482    0.5123580212374764    0.5892153865482335
    0.3937761435063418    0.6007729318687769    0.5822844861042498
    0.4113557253888749    0.5135522441416239    0.5913937390820299
    0.5463109313632629    0.4322218606204675    0.5804743633484651
    0.4489800256035691    0.4325316413382126    0.5822666220882110
    0.4550903239803497    0.6641208279384057    0.5514768218603834
    0.4962167493092079    0.3564749235689508    0.5665023496181079
    0.5297084345521204    0.6535767758840160    0.6099835347293134
    0.5509285451292546    0.6696811371103096    0.5296352301535914
    0.4985603347320965    0.5053466894421877    0.5405101956490037
    0.6449072523105727    0.5416406191246371    0.5269503145935595
    0.5045455601054810    0.5891731621817032    0.5190740674905947
    0.3548929520556985    0.5440436626279396    0.5279526051034432
    0.5972837698704535    0.4670386033434776    0.5142178707891025
    0.4978335547249114    0.3183283274948493    0.4884648189072872
    0.4017784414134647    0.4687166563523470    0.5150289216680406
    0.4465981133537030    0.3935853487536142    0.5016994115159432
    0.5503453180923809    0.3925355757900632    0.5019648648801663
    0.4056422024604460    0.6110772727213085    0.4960049673357102
    0.6105936033413071    0.6113116254799860    0.4861935973509496
    0.4754661050363413    0.6655643559387413    0.4685032585269580
    0.5016079354728941    0.5275287319250649    0.4591136184082589
    0.6049164849672546    0.5287547076543065    0.4512935738843938
    0.5679825026226581    0.6784743759493884    0.4466404853509937
    0.3981290525529411    0.5315376871606580    0.4537922541259521
    0.4999554598540891    0.3782181909541780    0.4266384227741974
    0.5582139322349251    0.4502353640861030    0.4379113712746777
    0.4426859753270630    0.4518472604603463    0.4388409526210994
    0.4423149641523695    0.6000799056335075    0.4166299663097024
    0.5699531518730693    0.5982914247043880    0.4083624740295522
    0.5034610671886083    0.6610076893861256    0.3858897852128405
    0.5527390169100572    0.5161558722640386    0.3803349123414960
    0.4478143480746809    0.5178287880711065    0.3818163688090650
    0.5008774031699149    0.4399978166773905    0.3676241542016677
    0.5003661764342329    0.5855296863662716    0.3450503042293647
    0.4986125124699641    0.5061596083580703    0.3098054603716868
