Au42 rank 10
1.0
   29.7228807657787044    0.0000000000000000    0.0000000000000000
    0.0000000000000000   29.7782842837340453    0.0000000000000000
    0.0000000000000000    0.0000000000000000   29.2345668281707489
  Au
  42
Direct
    0.5146848950068224    0.4538258556906031    0.6556449101336073
    0.4834604696385399    0.5317686817362449    0.6152915947085280
    0.5751039787724382    0.5092318129493862    0.6145831620310530
    0.4387272310444745    0.4514319417093005    0.6026736712572501
    0.5884387139546957    0.4126761838229289    0.6188796429672456
    0.5019105972727008    0.3769359604574629    0.6067124482354194
    0.6532629656355251    0.4700728692289385    0.5884292018585988
    0.4006476818481959    0.5286656730358915    0.5709227027170407
    0.5459097366167699    0.5876718666570055    0.5765007321086093
    0.4534981889276189    0.6051251587871135    0.5682598255669579
    0.4246957207763388    0.3721272247543453    0.5578638897225379
    0.5744495400773713    0.3343201315233160    0.5714562429397316
    0.6219400538520312    0.5451076606390949    0.5414388008133606
    0.3700293348650294    0.6080118315861613    0.5312140479918368
    0.3859201209265811    0.4491043643590777    0.5248808135566325
    0.5142912486040886    0.6626765370615437    0.5310074717005742
    0.6433374367733578    0.3892014928930484    0.5446962827545110
    0.5005951047740582    0.3432153697359038    0.5153265683895998
    0.3541723067564270    0.5287823256957556    0.4877609779328207
    0.5822878897166706    0.6127972636995673    0.4934322954173632
    0.4336270454081794    0.6573081154638304    0.4865826864554132
    0.6575039846630897    0.4707328081820906    0.4954325593961004
    0.4311178614363506    0.3899434816199443    0.4668421975525713
    0.5863694326752271    0.3430006217733541    0.4804064189352896
    0.6247910504540202    0.5438737215922987    0.4470809531818948
    0.3776717162019660    0.4570197189177171    0.4322054716979298
    0.3682800154954392    0.6097714598795275    0.4374454640156680
    0.5150210822529615    0.6576590044379439    0.4379048839294007
    0.6641458339540951    0.3883315690827044    0.4544914126573535
    0.5119731832970922    0.3706873851493436    0.4263553677503105
    0.3361757874171901    0.5349330378236271    0.3962091483584791
    0.6216714719759303    0.4603723652719003    0.4084950062590116
    0.5848281474589487    0.6126468387725468    0.3999917864012965
    0.4357013717811126    0.6541297152588431    0.3927101030678877
    0.5976353595736338    0.3716367759468856    0.3923231636955629
    0.4128905266693948    0.5732207627995332    0.3582403928131655
    0.5681135813218124    0.5268466086023634    0.3730259516090797
    0.5401685943322270    0.4395017970255633    0.3669424246044611
    0.3925017081161762    0.4849235548892279    0.3428046217388404
    0.5022032821434008    0.5963588829205617    0.3639198306959145
    0.4815143555300597    0.5079414940442809    0.3470676580035875
    0.4512755300594870    0.4255970960717798    0.3830483216257077
