Au42 rank 7
1.0
   28.7575337594275098    0.0000000000000000    0.0000000000000000
    0.0000000000000000   28.9152438079948055    0.0000000000000000
    0.0000000000000000    0.0000000000000000   28.9852178398231217
  Au
  42
Direct
    0.4919386647366170    0.4680141145228910    0.6588617624933119
    0.4689296296172142    0.3816718861320027    0.6093899867718260
    0.4255353076132181    0.5288628613516413    0.6217174256966160
    0.4023804388073001    0.4386261221964058    0.6461232002256579
    0.5756814561325493    0.4943472010771214    0.6153737212210778
    0.5119002704379237    0.5603472782914845    0.6497384995103399
    0.5576936165248447    0.4025489376453468    0.6375556669859487
    0.5285194290800233    0.6519963975607694    0.6246167004130364
    0.5723070182674379    0.5815156497916327    0.5766180310089187
    0.4582886842143588    0.6071112397415266    0.5785466970118707
    0.3492659735588383    0.4874359517275216    0.5830716134790586
    0.6201869667042212    0.4221177190241414    0.5665276812900837
    0.5466744422533865    0.3436124689965722    0.5611639010822341
    0.3894465357269303    0.4032531300181737    0.5592294991272341
    0.5270841455715141    0.6546352099330806    0.5288198032643274
    0.5247474401883253    0.4370162706314415    0.5452555451048429
    0.6167029110001393    0.5111619247297988    0.5305891736925312
    0.4945588757822546    0.5270852038634691    0.5376564734255863
    0.3972581462363198    0.5519823038570264    0.5302675982012383
    0.4631676293753297    0.3566558536367942    0.5161393706417983
    0.6255814301806728    0.3448901633973170    0.5094441285875426
    0.5805790595851067    0.5865767277171436    0.4820286504305074
    0.4590374323721064    0.6072274094236979    0.4806094840155098
    0.3573761950727880    0.4725199862201675    0.4909494334376595
    0.4533524175367776    0.4555374740599733    0.4876971474624593
    0.6394485594523334    0.4361126264084377    0.4745013468689833
    0.5440994485899248    0.4885401368170716    0.4638934166647372
    0.3799196157848941    0.3785178216992861    0.4701475070760062
    0.5326741794799925    0.6531480185069684    0.4338222347711889
    0.5428132180683517    0.3463301134086149    0.4631353453444633
    0.6358365895850058    0.5235530161975070    0.4368670480573493
    0.4149309608672726    0.5346323809283212    0.4364034032742412
    0.6294765426083248    0.3609735961789522    0.4160565958989073
    0.5021732087714009    0.5668825690212966    0.4054913169695446
    0.4654793967484051    0.3823421035531553    0.4209070173861622
    0.5935674917568586    0.5986616581966461    0.3850407248792828
    0.3916283958120588    0.4463627182460592    0.4044711180813907
    0.5527128567580359    0.4139302684319298    0.3952265883039269
    0.4780577493827557    0.4757984932550783    0.3866341562328401
    0.6447285636935284    0.4461371705137143    0.3767277944098084
    0.5659433289281592    0.5054220043267185    0.3661607245169614
    0.6528345606642687    0.5356707784602509    0.3438699242726508
