Au42 rank 3
1.0
   31.3160447517211935    0.0000000000000000    0.0000000000000000
    0.0000000000000000   28.6502073245387407    0.0000000000000000
    0.0000000000000000    0.0000000000000000   28.0287390279643631
  Au
  42
Direct
    0.6164567572057382    0.4203622195870369    0.6126893195657370
    0.5728522849258606    0.5016993614610697    0.6287501068496752
    0.4860217932955933    0.5020122059948589    0.6428797508712262
    0.5285905337603223    0.4191331185585598    0.6257910724020136
    0.3968656760028874    0.5011308865039943    0.6428591400039303
    0.4399400801716384    0.5802679883084105    0.6160847120963985
    0.5269930333162212    0.5805428592395101    0.6088781496277197
    0.4418261562391672    0.4191027916334427    0.6350582489196904
    0.6512907349250364    0.4982316211116370    0.5725212773070080
    0.3504491358376436    0.5758312156117019    0.6145286151189618
    0.5654496127225428    0.3715505013470440    0.5499199620553928
    0.3521301155551014    0.4212689700577207    0.6288583193521483
    0.6160511071855566    0.5804268925948929    0.6015320530455831
    0.3234520386965666    0.4923031763269513    0.5753521093911299
    0.3953172667853790    0.3505654874288730    0.5862837592062362
    0.6406949382643901    0.4171493604586298    0.5189919683770094
    0.3477037786229679    0.4111097066211436    0.5296892381404376
    0.3174978236413232    0.5719508202322841    0.5225146692189213
    0.4813753128018396    0.3600559679088984    0.5693293165344658
    0.3926173586651324    0.6192830795407529    0.5426099826027603
    0.4809239511329114    0.6307722511836850    0.5444573457210234
    0.5678165208025223    0.6217120317048500    0.5319731727052763
    0.6449868094007647    0.5730544833706754    0.5096640416800607
    0.6833870306493598    0.4915712396446347    0.4811273235664077
    0.3388510862973548    0.4918529157335403    0.4760448864598987
    0.5961601240654083    0.3596096520584388    0.4587683491570448
    0.4231711310398056    0.3648923055965418    0.4949382979009037
    0.3787798522881973    0.5735542797553533    0.4522682807035691
    0.4326612340532246    0.6479101153179653    0.4628819211143905
    0.6296327837410466    0.4406796109363817    0.4231674877976021
    0.5171305948024825    0.6344705554567643    0.4534111612319767
    0.3699417314105044    0.4133758452866803    0.4357613379459350
    0.5086096830927958    0.3586962760979623    0.4756019185235296
    0.6036475420720433    0.6237599016033488    0.4414262852452389
    0.6319777645787718    0.5371391868336722    0.4168603088921795
    0.4103876362204236    0.4943833993100991    0.4107842042729357
    0.4566605708729861    0.4117211394773420    0.4170528346701539
    0.4599153486384908    0.5735075360845090    0.4087706770214198
    0.5431260478843908    0.4142449441536739    0.4046342111696682
    0.5470733467770355    0.5662813582315803    0.3932332379765640
    0.4940110435092827    0.4905469689759026    0.3801131267670999
    0.5812539696567597    0.4863072034087030    0.3567703336305993
