Au
 1.0000000000000000
    29.8774958869999985    0.0000000000000000    0.0000000000000000
     0.0000000000000000   30.7706929160000016    0.0000000000000000
     0.0000000000000000    0.0000000000000000   28.6522664439999986
 Au 
  42
Cartesian
 15.9827800000000000 13.6986600000000003 18.0474700000000006
 17.0214299999999987 16.2492500000000000 17.8980500000000013
 18.7089399999999983 14.0329899999999999 18.5196700000000014
 14.4475400000000000 15.7486899999999999 16.9647100000000002
 15.5488300000000006 18.3149400000000000 16.8217500000000015
 16.6512700000000002 20.8370800000000003 16.6325099999999999
 19.7809799999999996 16.4955800000000004 17.9356200000000001
 13.6799999999999997 13.1267300000000002 16.5051099999999984
 15.5960800000000006 11.1609999999999996 16.9526600000000016
 18.3054400000000008 18.7448399999999999 17.3811700000000009
 18.2589800000000011 12.0424399999999991 16.7220300000000002
 19.7543100000000003 14.3590099999999996 16.0169899999999998
 13.5629899999999992 17.5976099999999995 15.0629700000000000
 16.3402999999999992 16.3262700000000009 14.8135300000000001
 13.9802300000000006 10.9402000000000008 14.7443000000000008
 12.2280599999999993 15.2156099999999999 15.4335400000000007
 14.4697899999999997 14.6341500000000000 13.5958199999999998
 19.1697600000000001 16.9900100000000016 15.2989700000000006
 16.9161199999999994 10.7024100000000004 14.5881799999999995
 16.3788899999999984 13.5147499999999994 15.2390899999999991
 11.8364600000000006 12.6247799999999994 14.4230300000000007
 17.3953300000000013 19.0689400000000013 14.6928800000000006
 14.7543199999999999 20.1736700000000013 14.7342899999999997
 19.0113599999999998 12.4944699999999997 14.1036400000000004
  9.9786800000000007 14.6400900000000007 13.9194600000000008
 19.8946199999999997 15.1202000000000005 13.3873800000000003
 15.2634000000000007  9.9827399999999997 12.5251199999999994
 11.4371600000000004 16.9195099999999989 13.3005700000000004
 17.1441799999999986 14.4388699999999996 12.8209000000000000
 13.3942399999999999 12.0209600000000005 12.2174700000000005
 12.9443300000000008 19.1952399999999983 12.9126499999999993
 18.1541899999999998 17.3437100000000015 12.7087800000000009
 17.5364800000000010 11.4220100000000002 11.9767100000000006
 12.0741499999999995 14.4346200000000007 12.1571400000000001
 15.5780600000000007 18.3828800000000001 12.6782100000000000
 19.5792800000000007 13.0901200000000006 11.4159500000000005
 13.6170600000000004 16.7549600000000005 11.6095100000000002
 14.4178300000000004 14.2303200000000007 10.7288899999999998
 15.3241700000000005 11.6388400000000001 10.3092699999999997
 18.9455899999999993 15.6886799999999997 10.7572799999999997
 16.2357799999999983 16.3760000000000012 10.8032699999999995
 17.1036499999999982 13.6826000000000008 10.1202799999999993
