Au42 rank 16
1.0
   29.7845840294996442    0.0000000000000000    0.0000000000000000
    0.0000000000000000   29.2078851096837333    0.0000000000000000
    0.0000000000000000    0.0000000000000000   30.0865100382423698
  Au
  42
Direct
    0.4609364954131843    0.5266335181562152    0.6670489079311913
    0.3737399282330841    0.5115352434539030    0.6378208055125464
    0.5316298610902253    0.4786671615863679    0.6361415671080787
    0.4371904849772813    0.4409760044996294    0.6343210342788418
    0.4250099051200608    0.5844649260623770    0.6045473352925661
    0.5165779930825848    0.5634883551712975    0.6013018903848129
    0.5114177143774948    0.3884459989011692    0.6206804691722378
    0.3715715847746289    0.4481529205289495    0.5688780697997724
    0.5969201077483857    0.5204277017294099    0.5833016580224604
    0.5913389325890177    0.4235342536346870    0.5886715560482264
    0.4830115539464221    0.6304009369187835    0.5447302728234025
    0.3578558593672722    0.5408632172134166    0.5521012200699343
    0.4376291733972467    0.3768293026990861    0.5665798902216741
    0.3901382944903861    0.6283601272616451    0.5301175719312083
    0.6657317739505921    0.4669164834130597    0.5523634107544388
    0.4487720895562672    0.4490084106643790    0.5085925127375669
    0.5661359767615997    0.5902526597625160    0.5283320967744398
    0.4501171158699219    0.5422825757736329    0.5229096733151710
    0.5268688744058357    0.3882620801370646    0.5308304663333712
    0.3734923393672909    0.3870579939863535    0.4968302198248166
    0.5297738964403239    0.4961947485594053    0.5174103534157219
    0.3507119357281469    0.4793239222166807    0.4836260694780056
    0.6214873399531301    0.5225905284707578    0.4911541671278493
    0.5330001670338450    0.6554101920331324    0.4729030953421607
    0.6041843898778118    0.4278834667137949    0.4950998058988025
    0.3794105718470407    0.5665405330356517    0.4615343697985765
    0.4589402366329580    0.3562556492771732    0.4768418336236262
    0.4429432044185938    0.6377522434995793    0.4557248781640804
    0.5728887698698633    0.5783651565733288    0.4350642293445959
    0.4697885058714807    0.5053437111890563    0.4405780869873215
    0.3351541034292165    0.4186981885446929    0.4159258104838502
    0.5088537081174306    0.6297159784976349    0.3891342954350032
    0.3900734192635790    0.3436035612003407    0.4163348247884499
    0.5669414500149390    0.4829070853387324    0.4260521658721050
    0.4753073466467346    0.3550473108270911    0.3858059776583322
    0.5385206478391324    0.3943520487702193    0.4404139617688329
    0.4323026555698402    0.5767834392366415    0.3851990462058297
    0.4091466210945542    0.4165565831435412    0.3573666052788826
    0.3791406200696593    0.4981519965300231    0.3983820264795165
    0.5183809343036776    0.5389745654330164    0.3677111129093183
    0.5000508161217252    0.4443038169639863    0.3727191901611571
    0.4396950257510853    0.4997576069825453    0.3291343339950102
