Au42 rank 5
1.0
   29.1170353792006011    0.0000000000000000    0.0000000000000000
    0.0000000000000000   29.9487300961909853    0.0000000000000000
    0.0000000000000000    0.0000000000000000   30.4617117507359580
  Au
  42
Direct
    0.5157650693281592    0.4409712531785861    0.6573257326615840
    0.5161304715564831    0.5314409643780732    0.6685926292764512
    0.4333555061472966    0.5753203714944614    0.6737927678922312
    0.4335056889387410    0.4849323274385297    0.6601795919364812
    0.5877054788461028    0.5760578002873020    0.6309986392985854
    0.5794414791340777    0.4871714842716307    0.6098701142983707
    0.5031000534093736    0.6151689783739155    0.6288005824638450
    0.4497503683791734    0.4130051125917720    0.5999187182844214
    0.3637560696267592    0.4499956903782386    0.6104630175062099
    0.3696007388771735    0.5401632230329548    0.6173746602026366
    0.5404347977823920    0.4115850355183114    0.5735861121811422
    0.4124876002098034    0.6205403358670557    0.5978939080031311
    0.6217944259944826    0.5451137850283696    0.5523345841262862
    0.6086763945655269    0.4549458229698428    0.5295849093250414
    0.5609350064084604    0.6154331517918541    0.5531963632614900
    0.4733326314464711    0.3746703333958017    0.5214805880601847
    0.4825202260824122    0.6649780477152356    0.5562814329512854
    0.3878958505351381    0.4135333582818892    0.5311088990199251
    0.3488300383623375    0.4972129839226955    0.5338917734880106
    0.3439857192923473    0.5876812550137688    0.5451461078800384
    0.5622520724405566    0.3857066739473285    0.4895952417864612
    0.4195310528766896    0.6222729035662529    0.5044002542737526
    0.6169934735980708    0.4405836404684970    0.4377387911769722
    0.6532982468169797    0.5139884800293203    0.4756010981200954
    0.5909211394987707    0.5820941546109123    0.4727918393087188
    0.4969586537199371    0.3489073118731508    0.4369000771468221
    0.5097862835064552    0.6282139587707642    0.4769745063203162
    0.4074894468462813    0.3742629839243427    0.4541764868277696
    0.3723455246167426    0.5519193880176727    0.4649206386103733
    0.6060959730229374    0.5241276245816306    0.3992615619916551
    0.3727596329860930    0.4609366142754565    0.4545036497251706
    0.5349482888419091    0.5873306679319213    0.4004805738499086
    0.4422654695461808    0.5950865834671977    0.4221947684162411
    0.4308781653091157    0.3343918690909849    0.3750617668927033
    0.5785799089771457    0.3691357339946649    0.3993928846962630
    0.5712689791512064    0.4493722656499958    0.3559072262249593
    0.4167153669090918    0.4253947166670394    0.3790750405605415
    0.4670876666046899    0.5669038657988932    0.3399192585443296
    0.5527799024461555    0.5328712823018575    0.3268823630895570
    0.4097404849735284    0.5145322371701103    0.3899418860464416
    0.5013764445996325    0.3891761617462507    0.3504586875014500
    0.4785322555244287    0.4759663361950688    0.3341717435915749
