Au42 rank 13
1.0
   30.8466062246644768    0.0000000000000000    0.0000000000000000
    0.0000000000000000   28.5339151339639159    0.0000000000000000
    0.0000000000000000    0.0000000000000000   29.7084894570157800
  Au
  42
Direct
    0.5281720599256085    0.6423386321466195    0.6635775004088968
    0.4972473196387864    0.5538679754848506    0.6470092029257363
    0.5857687264086909    0.5707485973117976    0.6374699353379489
    0.4655447820564210    0.4688409877476568    0.6268996595598475
    0.5546902183618379    0.4812277580749549    0.6245631214093156
    0.4100371212745088    0.5465944309174057    0.6192983984383119
    0.4541298094509592    0.6316554869449931    0.6077782434716233
    0.6433168176124773    0.5057210399117620    0.6022603576641069
    0.4334204741746713    0.3857593710687453    0.5954264779019209
    0.3796599930931884    0.4598913667125230    0.5915375794310070
    0.5219367780967368    0.4031730483825592    0.5809102380471552
    0.3335783573629355    0.5403698016132082    0.5734376248049221
    0.5387838834987112    0.6245398334036403    0.5736450561441526
    0.4770281278063276    0.5479931638566835    0.5510204069418108
    0.3919617156082503    0.6065338872926355    0.5438574757700007
    0.5934394959045883    0.4490168722915948    0.5460892419020665
    0.5988738331061305    0.5592218097550367    0.5429245239782811
    0.4607419551496372    0.4560640126647926    0.5283719881892821
    0.4707321475158504    0.6447306359496310    0.5148483826906985
    0.3252619365616269    0.4638655581453033    0.5170929331446746
    0.4682847538442459    0.3514255404073365    0.5161878946490360
    0.3870225513557798    0.3952671862537343    0.5130077139849104
    0.6660627949626099    0.4975549383090416    0.5124311861075233
    0.5336439647741317    0.5079192510891494    0.4889300140656635
    0.3473990569173028    0.5494577733445288    0.4815744300222226
    0.5496199705779755    0.6103845129503592    0.4835006631371041
    0.5358163842411797    0.4030891610079927    0.4866588507155043
    0.4461971425149975    0.5238764016802950    0.4657829607416020
    0.4099254580842509    0.6143135121494472    0.4520179960079428
    0.6134410440336892    0.5516192125755008    0.4516036611772774
    0.6050107745247792    0.4501755267439101    0.4525419454445506
    0.3766390633981606    0.4603566477184579    0.4422692884671108
    0.4527411194215780    0.4069829079341601    0.4417388012975987
    0.4912267283995910    0.6483186663422441    0.4249406676112945
    0.6771755499439336    0.4932729006693499    0.4199635566123814
    0.5997222908999731    0.5020214966108429    0.3711732012967817
    0.3783851158607153    0.5430015042453584    0.3957076470753508
    0.5273777183382041    0.4467441015870952    0.4037753831966989
    0.4447915478841934    0.4775352286307347    0.3793437029717892
    0.4594424276104586    0.5744294873221448    0.3757547968747402
    0.5176026805277085    0.5120295330244741    0.3365335455699064
    0.5483120128158516    0.5806336932579996    0.3946698510750934
