Au42 rank 4
1.0
   29.3089352500871634    0.0000000000000000    0.0000000000000000
    0.0000000000000000   28.0267373191130247    0.0000000000000000
    0.0000000000000000    0.0000000000000000   31.1660033477866421
  Au
  42
Direct
    0.4456255513914035    0.5126873468445101    0.6817179331635775
    0.5362390799901297    0.5028540120620469    0.6615505998805561
    0.4761572148770676    0.4271430329509451    0.6502166328005431
    0.5676069265173808    0.4152255250178787    0.6363906766042846
    0.4891153142500102    0.5869806910798914    0.6418340847772545
    0.5817371787688853    0.5806556017251551    0.6304728512067467
    0.3923720027468082    0.4649693073689719    0.6235911285278742
    0.3996330098207010    0.5639631082226693    0.6200029538396122
    0.6024088449697549    0.4937642923744909    0.5949044613669253
    0.4186091510611692    0.3748420054964105    0.5996876301437315
    0.5090620908079112    0.3760014266071361    0.5772679665033612
    0.4409475694419705    0.6415870516215985    0.5849259538002012
    0.5318678083563689    0.6259460335248727    0.5679548007713089
    0.5917603161996505    0.4104276365415641    0.5495083095635446
    0.3419850105260607    0.5169093502961546    0.5663390700515436
    0.6084257239732686    0.5749768112736315    0.5449733344426261
    0.3775432264317198    0.4312757196252338    0.5388826398403541
    0.6353710604062052    0.4875496136537821    0.5124965992808793
    0.3940189923536017    0.5858756791509212    0.5277709312630682
    0.4437296685104266    0.3672803477868948    0.5138642043870579
    0.5354443374572827    0.3614457226538191    0.4936340341835372
    0.4704509164682447    0.6329090020554796    0.5002882510883817
    0.5627797996104810    0.6303003997264859    0.4856902660681165
    0.6109951429905905    0.4096200872070916    0.4638373837181534
    0.3704474598019243    0.5066906324394869    0.4814803708565253
    0.6292616755247679    0.5663854252860733    0.4596674949745252
    0.3934850204537470    0.4168649064111204    0.4538181305153169
    0.6584761811609008    0.4816580928963008    0.4255426444068934
    0.4208964422379596    0.5782016109244400    0.4432423660241382
    0.4703154925491747    0.3660746920075931    0.4296532947805389
    0.5602785334368909    0.3579503925981006    0.4070721428972193
    0.5006597810451040    0.6216547942910765    0.4179152928942848
    0.5936547936345363    0.6309300672416117    0.4026628227584075
    0.4132384669503715    0.4036046498671407    0.3686417996556365
    0.4008750460110332    0.4957384643587791    0.3991757716162933
    0.6080348976107305    0.5387018890481696    0.3730452320148013
    0.5409818379185520    0.5963627479465224    0.3379449190594651
    0.5921603714277659    0.4422480447676957    0.3755261285530268
    0.5064933674802400    0.4107073211434461    0.3539274582694382
    0.4588810286402772    0.5601731585621379    0.3620981670808942
    0.4459075035132954    0.4764286287207030    0.3199057651681150
    0.5351544837951719    0.5003912152505134    0.3281211469298816
