Au42 rank 6
1.0
   30.3827815982046374    0.0000000000000000    0.0000000000000000
    0.0000000000000000   28.8633667599674055    0.0000000000000000
    0.0000000000000000    0.0000000000000000   30.0454723162608701
  Au
  42
Direct
    0.5460631853809590    0.4916967618357550    0.6686117072925321
    0.5134959112498676    0.4044757583659384    0.6663362275305248
    0.4577869803995096    0.4759653996866867    0.6507577940090126
    0.4956824308159016    0.5638282435030509    0.6352878509919994
    0.6340927856220774    0.4870098789056340    0.6532300704416175
    0.5849031455295037    0.5672580944395946    0.6312973387043337
    0.4074545889908217    0.5493418359099058    0.6283766518338656
    0.5926936526971953    0.4118891426856540    0.6220193477416618
    0.6681595645545730    0.5467093106098116    0.5943947562583857
    0.5327210047490599    0.3482061108364897    0.5946455584705036
    0.4550124845325885    0.3990930569789803    0.5943597261605919
    0.3953803133057107    0.4693165781455164    0.5805025216792218
    0.6232291557901988    0.6216149518024777    0.5658094114688160
    0.5330678846482410    0.6193740647149356    0.5716419604489761
    0.4439397276461373    0.6073095829276758    0.5668484738338997
    0.3685365687634173    0.5554895583077470    0.5479540368149844
    0.6347213422916460    0.4651190995731734    0.5590789075227771
    0.5780786760626921    0.3979678420040421    0.5303500425180709
    0.4924456600413497    0.3664614457989024    0.5157009323123440
    0.4083573128658131    0.4024095904743490    0.5165597477565718
    0.6331974813025742    0.5449286206430856    0.5085284839519366
    0.3543445790776948    0.4772411999214264    0.4984371226030938
    0.5752648110827387    0.6174457737887276    0.4893730037901088
    0.4878889772536548    0.6410940308044948    0.4942452391124003
    0.4008673400686642    0.6161795577523229    0.4857613760202396
    0.3285742109160475    0.5625751959705806    0.4654470323143140
    0.6028134621030299    0.4646269394951852    0.4703582807282299
    0.5418157671649880    0.3987478142550382    0.4461114836638987
    0.4512224785735393    0.3842540140322891    0.4375437140158854
    0.3636174272589741    0.4082236826461651    0.4365712960220079
    0.5921077820144461    0.5491930776637902    0.4279097788981139
    0.5264817200139413    0.6152041093943328    0.4140895980866338
    0.4436290062931584    0.6525679718417275    0.4136173877066681
    0.3521239983612761    0.4961316305823524    0.4052498730379593
    0.3809027782401483    0.5875658646841408    0.3957119189747264
    0.5603217988095064    0.4701590072599951    0.3895637085271223
    0.4151774059041837    0.4370704282074180    0.3668089106088971
    0.5001900127574156    0.4043143305266242    0.3635824174381588
    0.4624173988059745    0.5838231125870751    0.3533309715697255
    0.5483338418921340    0.5540612863065852    0.3471925456002264
    0.4831045299212599    0.4916369797498943    0.3347598350484757
    0.3974863257224450    0.5223980426849301    0.3305797540058153
