Au42 rank 1
1.0
   31.2857861119750069    0.0000000000000000    0.0000000000000000
    0.0000000000000000   29.1446728111736917    0.0000000000000000
    0.0000000000000000    0.0000000000000000   29.0304677629201464
  Au
  42
Direct
    0.4227733077563191    0.5410825051381264    0.6548537614398432
    0.5076116925181191    0.5193942733692446    0.6356319940628133
    0.4438637431138013    0.4547075482939903    0.6251295258543513
    0.5275725004062382    0.4298897758095328    0.6137786755020320
    0.5893327570264013    0.4974856043191119    0.6101995542753679
    0.4715458052323382    0.5993852376984568    0.6025166861184933
    0.3637803439176607    0.4963033817782201    0.6018795508571945
    0.6126330117051136    0.4077725098171012    0.5964041195857289
    0.5568937986042223    0.5832153597752658    0.5898424449456536
    0.3815760259476157    0.5891533125986973    0.5873611747185578
    0.3797715083030444    0.4060467780337583    0.5830734114118789
    0.6422220953202075    0.5623296437943743    0.5722049407718113
    0.4648656340942863    0.3853995072231734    0.5642948445776134
    0.6574504442390977    0.4729857137419508    0.5490467324916314
    0.4275375867256599    0.6561318906328500    0.5439549972391636
    0.5490031564703277    0.3709667193599896    0.5429108396737071
    0.3176607133347598    0.5462770682372761    0.5392698906487562
    0.5122813786572085    0.6335832570161091    0.5253898762792578
    0.3396536442155563    0.4579061671028018    0.5175833404435937
    0.5937354198942172    0.6051202440198991    0.5062687228739019
    0.6315623847864302    0.3919202383025004    0.5058994471489076
    0.3685087825741523    0.6081107025793634    0.4940722246534200
    0.4063213380724819    0.3948737917228898    0.4937538054972709
    0.6604339251620168    0.5421397272102884    0.4824023888578949
    0.4877803302519671    0.3664489692820480    0.4745964973609589
    0.6824072352035732    0.4537590392193525    0.4606990288327811
    0.4510472530530621    0.6290780045050058    0.4570508675670674
    0.5725169127628849    0.3438877402241694    0.4560219644556802
    0.3425938390169374    0.5270281866408562    0.4509213607683899
    0.5351924337921108    0.6146227367461561    0.4357052414047164
    0.3578695128155517    0.4376808166794432    0.4277695582513127
    0.6203026879974677    0.5939844175641106    0.4169445876089685
    0.6184783975164297    0.4108936960430105    0.4126368804333711
    0.6362787661919931    0.5037308596746745    0.3981197869916814
    0.3874200750743215    0.5922279229710375    0.4035977273474942
    0.4431881965436737    0.4168098599339066    0.4101708458465317
    0.5285132973661584    0.4006518511289475    0.3974787882350890
    0.4107372881465800    0.5025340010561955    0.3897593820958717
    0.4924601039502318    0.4806206475821460    0.3643441475268756
    0.4724882592959425    0.5701458398150957    0.3861981694758775
    0.5772917961278874    0.4589483150148222    0.3451230340522002
    0.5562057825471440    0.5453320968179927    0.3748704529361718
