Au
 1.0000000000000000
    30.3827815980000011    0.0000000000000000    0.0000000000000000
     0.0000000000000000   28.8633667600000017    0.0000000000000000
     0.0000000000000000    0.0000000000000000   30.0454723160000015
 Au 
  42
Cartesian
 16.5917199999999987 14.1904400000000006 20.0873999999999988
 15.6006099999999996 11.6730999999999998 20.0217799999999997
 13.9100800000000007 13.7375600000000002 19.5520800000000001
 15.0624099999999999 16.2721499999999999 19.0853399999999986
 19.2678699999999985 14.0567299999999999 19.6268300000000018
 17.7724200000000003 16.3707500000000010 18.9656100000000016
 12.3827599999999993 15.8557600000000001 18.8777599999999985
 18.0080400000000012 11.8884299999999996 18.6924600000000005
 20.3025799999999990 15.7823600000000006 17.8594499999999989
 16.1874299999999991 10.0479800000000008 17.8680100000000017
 13.8245199999999997 11.5163799999999998 17.8601099999999988
 12.0153999999999996 13.5452800000000000 17.4414300000000004
 18.9376700000000007 17.9453600000000009 16.9982599999999984
 16.1992499999999993 17.8763900000000007 17.1724099999999993
 13.4918300000000002 17.5246600000000008 17.0266799999999989
 11.1989900000000002 16.0320800000000006 16.4609600000000000
 19.2830399999999997 13.4266199999999998 16.7997799999999984
 17.5619000000000014 11.4880600000000008 15.9385200000000005
 14.9609100000000002 10.5751100000000005 15.4971599999999992
 12.4059100000000004 11.6123399999999997 15.5223200000000006
 19.2347999999999999 15.7299399999999991 15.2813599999999994
 10.7658000000000005 13.7738600000000009 14.9755599999999998
 17.4805400000000013 17.8277700000000010 14.7001100000000005
 14.8247000000000000 18.5040699999999987 14.8471799999999998
 12.1812900000000006 17.7838799999999999 14.5911000000000008
  9.9838400000000007 16.2371599999999994 13.9824999999999999
 18.3101999999999983 13.4134600000000006 14.1360200000000003
 16.4582400000000000 11.5121300000000009 13.4080600000000008
 13.7079799999999992 11.0875800000000009 13.1488200000000006
 11.0468700000000002 11.7817799999999995 13.1178299999999997
 17.9861499999999985 15.8530599999999993 12.8591400000000000
 15.9964399999999998 17.7604900000000008 12.4391900000000000
 13.4769900000000007 18.8369999999999997 12.4242299999999997
 10.6988299999999992 14.3201000000000001 12.1739800000000002
 11.5707599999999999 16.9605500000000013 11.8844499999999993
 17.0205699999999993 13.5726899999999997 11.7091700000000003
 12.6135000000000002 12.6134299999999993 11.0207099999999993
 15.1951199999999993 11.6706400000000006 10.9277899999999999
 14.0485299999999995 16.8524299999999982 10.6145099999999992
 16.6583299999999994 15.9920299999999997 10.4320400000000006
 14.6785800000000002 14.1906400000000001 10.0593100000000000
 12.0772600000000008 15.0764600000000009  9.9312699999999996
