Au42 rank 12
1.0
   30.5344859461456366    0.0000000000000000    0.0000000000000000
    0.0000000000000000   29.5856368784008268    0.0000000000000000
    0.0000000000000000    0.0000000000000000   28.6742064653965514
  Au
  42
Direct
    0.5734765653101686    0.6624501988104466    0.6503973894023283
    0.5610189443701831    0.5707446639250864    0.6439595127917780
    0.4750712321851681    0.5390825313376475    0.6411945187221767
    0.4892379227303155    0.6311617957110393    0.6513665165453845
    0.5450235544055186    0.4794843475803884    0.6320142095393652
    0.4048382872982628    0.6018434661911332    0.6401139564947004
    0.4610767279754474    0.4506556564894200    0.6114174057851169
    0.6162675603170683    0.4292007574731900    0.6013632909625924
    0.5334223317252008    0.3958450995585189    0.5926224816064831
    0.6231430112417491    0.5211430551087782    0.5985771798721184
    0.6289985429267086    0.6149811968831700    0.5914697565344650
    0.4501842789204363    0.3704999546513519    0.5638890701006400
    0.4021504323460821    0.5204405787792347    0.5873906060482751
    0.5416540237749881    0.6338689099054413    0.5652723358166607
    0.5351061211464584    0.5358004896957058    0.5517780114156430
    0.4555879496302765    0.6050089553718506    0.5606814236118428
    0.4062524649057624    0.4430492526325532    0.5328736207404779
    0.6748597067489285    0.5608203205455813    0.5306705934072216
    0.6455906218406195    0.4723684423178887    0.5195942521931441
    0.3625344566876106    0.5993944428116884    0.5549468839108577
    0.5926466313051139    0.3965300163981167    0.5153882464425855
    0.4625322100698711    0.5150664043541821    0.4996404070441502
    0.5228333907339353    0.3387485025154072    0.5160574768254548
    0.5964457049277647    0.5973755667753422    0.4982452860033339
    0.4607460723783257    0.3943126180216029    0.4717370669805546
    0.3661939958459943    0.5180765286031471    0.4988653187288959
    0.5079151026968002    0.6053050713807581    0.4806719240119401
    0.4176765269334349    0.6006372880082634    0.4733226955955349
    0.5379836076255463    0.4700140559292000    0.4848448410906190
    0.3266762740166969    0.5944202200944043    0.4673560916682764
    0.3767296206823087    0.5458966248225610    0.4047543100394985
    0.4101040443699869    0.4624291782157115    0.4350331223908914
    0.5614486141226516    0.5670182049988758    0.4148054122906760
    0.6438726402598761    0.5336388977844833    0.4462726442762144
    0.6159377719699638    0.4434923064183371    0.4344148626077619
    0.5443357043861248    0.3830673835070653    0.4342405234294357
    0.4321521606881085    0.4989534865722345    0.3484753891542053
    0.4705354947543656    0.5647487752107870    0.4045399590921663
    0.4805678033049650    0.4291085828806228    0.3845997485006170
    0.5659147639655945    0.4270093613187527    0.3537386891006966
    0.5212749642084641    0.5083296906682666    0.3502356800007738
    0.6112752248108883    0.5060594171738271    0.3632949511194619
