Au42 rank 17
1.0
   30.2395197254970540    0.0000000000000000    0.0000000000000000
    0.0000000000000000   29.8118869309222916    0.0000000000000000
    0.0000000000000000    0.0000000000000000   28.8056488072303551
  Au
  42
Direct
    0.4451848327577916    0.5760985658960063    0.6017331703682421
    0.5543211515172893    0.4754053839059238    0.6505505348811644
    0.4688149085857997    0.4883327404482745    0.6202377352469108
    0.5244682934744402    0.5609055033679201    0.6518765492023694
    0.4897199750826416    0.6466345975564449    0.6451966531509663
    0.5136403934916010    0.4025752078253064    0.6131314824991996
    0.5929693205139902    0.5351583342205092    0.5901987656884556
    0.5584060408870155    0.6220290740549466    0.5877110512941197
    0.4072530731946629    0.5073955213023980    0.5520403711080506
    0.4323255121405034    0.4184253160315437    0.5693809636852437
    0.4697359329921348    0.6537512819485440    0.5522239545668979
    0.5879282155011128    0.4434446444220851    0.5679091790226388
    0.5034583528166896    0.4705818672290075    0.5282188067803200
    0.4695409191424930    0.3337766122210276    0.5662143977521212
    0.5467440820685986    0.6623670110065100    0.5022841042325255
    0.5370590503777267    0.3779015785139167    0.5217008978271025
    0.6047121530068820    0.5910744246257709    0.5127369984138557
    0.6355171794325356    0.5028721947609139    0.5131371254429044
    0.5086620070522693    0.5651404509959478    0.5243554866947896
    0.3826252072432165    0.4407747579230875    0.4928767428067595
    0.3615033743841160    0.5292136545123618    0.4695957408394280
    0.4511723746040105    0.3744716171208871    0.4821458535676845
    0.4564339495434396    0.5153598540466644    0.4604050129743716
    0.6045832817602373    0.4205377496264934    0.4759994537271269
    0.4122188082553176    0.5925689519025773    0.5121540146917081
    0.6688065470591315    0.4685942561594427    0.4306136650653477
    0.5501863872917255    0.5137030956877627    0.4581993273748548
    0.3674651593429034    0.3733055770361917    0.4305805582528424
    0.6337460409245118    0.5560380006660334    0.4311420290476974
    0.4725791726917693    0.6373316617412050    0.4543948229016208
    0.5217844624416070    0.4165282379532719    0.4347763665349327
    0.5593979587901025    0.6106951403076741    0.4262092970110218
    0.3296285034201732    0.5459416398647545    0.3804628816820151
    0.4357590391492246    0.4306241055735645    0.4073858412310092
    0.5880564125050416    0.4595608461297235    0.3862322993351464
    0.3465576993221104    0.4591065907157499    0.4043073454677761
    0.3994881487082363    0.5986211521836995    0.4146481648562921
    0.6539592631974335    0.5157665447724851    0.3483365557126422
    0.4844715204922880    0.5772364797239167    0.3813293176330377
    0.5684006915345289    0.5473176423878964    0.3568420554547434
    0.5010745312193547    0.4844107257142176    0.3711728596781358
    0.4152214602058464    0.5156544605482635    0.3700569324240779
