Au
 1.0000000000000000
    27.8737695969999990    0.0000000000000000    0.0000000000000000
     0.0000000000000000   31.7434770069999992    0.0000000000000000
     0.0000000000000000    0.0000000000000000   27.9346551269999992
 Au 
  42
Cartesian
 13.6965299999999992 14.2084399999999995 17.8649400000000007
 13.6289999999999996 16.9439899999999994 17.7835299999999989
 13.5750700000000002 19.7145200000000003 17.5145499999999998
 16.0779299999999985 12.8588400000000007 17.6833700000000000
 11.4410600000000002 12.7355099999999997 17.3448099999999990
 16.0092700000000008 15.6248299999999993 17.3505299999999991
 11.4101800000000004 15.5016200000000008 17.0155799999999999
 15.8440999999999992 18.3143199999999986 16.8688000000000002
 13.8427600000000002 11.5443099999999994 16.8219799999999999
 11.5003899999999994 18.1987699999999997 16.5524400000000007
 15.1010700000000000 20.7000799999999998 15.4725800000000007
 12.3144700000000000 20.6248900000000006 15.2676499999999997
 17.4048900000000017 14.0250400000000006 15.5847099999999994
 10.3726000000000003 13.8379100000000008 15.0710999999999995
 16.2218300000000006 11.4221800000000009 15.3627000000000002
 17.5551999999999992 16.7501899999999999 15.3691800000000001
 11.7113999999999994 11.3059700000000003 15.0321200000000008
 10.1104699999999994 16.5517499999999984 14.8258799999999997
 17.5361200000000004 19.5212199999999996 15.0772800000000000
 10.0282800000000005 19.3213200000000001 14.5293799999999997
 14.0458300000000005  9.9315999999999995 14.6179400000000008
 13.8256499999999996 21.8099500000000006 13.3149700000000006
 17.8440000000000012 12.4203600000000005 13.4039900000000003
 10.3353699999999993 12.2196899999999999 12.8555899999999994
 17.7617599999999989 15.1896199999999997 13.1075400000000002
 16.1600499999999982 20.4353499999999997 12.9012799999999999
 10.3168500000000005 14.9907699999999995 12.5645000000000007
 11.6494000000000000 20.3194200000000009 12.5699000000000005
 17.4985900000000001 17.9032300000000006 12.8625699999999998
 10.4672199999999993 17.7161299999999997 12.3486100000000008
 15.5573599999999992 11.1171199999999999 12.6654300000000006
 12.7706400000000002 11.0415299999999998 12.4603699999999993
 16.3720900000000000 13.5426800000000007 11.3806999999999992
 11.7936399999999999 18.8821800000000017 10.2496399999999994
 16.4616100000000003 16.2395199999999988 10.9174699999999998
 14.2971699999999995 12.0265699999999995 10.4185400000000001
 16.4312100000000001 19.0061600000000013 10.5886399999999998
 11.8632799999999996 16.1164899999999989 10.5833100000000009
 14.2431000000000001 14.7973099999999995 10.1486999999999998
 14.0288400000000006 20.1966199999999994 11.1108600000000006
 12.0276899999999998 13.4270300000000002 11.0645699999999998
 14.1755600000000008 17.5332100000000004 10.0677699999999994
