Au42 rank 15
1.0
   28.6735975777868717    0.0000000000000000    0.0000000000000000
    0.0000000000000000   28.9974353415985178    0.0000000000000000
    0.0000000000000000    0.0000000000000000   30.5976814684325831
  Au
  42
Direct
    0.5271713993365426    0.4991863088468101    0.6442087456252467
    0.4439908515602348    0.4609060681506522    0.6710021022321371
    0.4434100566729262    0.5509045485088824    0.6432425838243552
    0.5021198689008741    0.4049771846645258    0.6280544260353198
    0.5293036940928549    0.5946198747856319    0.6232110209438108
    0.3663643328978997    0.4955522250110829    0.6273097978590443
    0.5898069218513188    0.4384680467404068    0.6091878681926296
    0.4071381378857460    0.4123591876211797    0.6004787538342090
    0.6002634143569366    0.5337353684301831    0.5964556332798738
    0.4404993618024078    0.6269996044440451    0.5882665364175269
    0.6015005160522533    0.6259532642263366    0.5716651176223828
    0.4647484482430843    0.3479688345132091    0.5648656304353186
    0.3822223013750272    0.5565755021478123    0.5618167327311728
    0.5573827579006456    0.3594506891927859    0.5647602042975997
    0.6506528969672764    0.3792674047142941    0.5634433548901580
    0.4864418473025349    0.5434387959002362    0.5585656739815273
    0.3540699632790430    0.4657608470624564    0.5421988334506951
    0.6506966773963074    0.4711140577429804    0.5443787250837337
    0.4540905268390865    0.4626656994630117    0.5270408042234758
    0.5151457852827842    0.6379652333740680    0.5333627024061759
    0.5500894382682677    0.4822674348836061    0.5280074497695040
    0.6438754608764958    0.5615671229431275    0.5193752888984133
    0.4002544700598139    0.3865908149666998    0.5095022073702924
    0.4307704455444742    0.6058674632845773    0.4989508959728065
    0.5023887819985688    0.3830408919769050    0.4889293792500134
    0.5972967595874036    0.4053378516728707    0.4915052504509450
    0.3754832636890333    0.5306241987070888    0.4751550809076012
    0.5925087975917662    0.6346776367687360    0.4811645158547769
    0.4903925199492340    0.5287286173111991    0.4686761329655875
    0.3486468889338719    0.4421408548026001    0.4542742468349671
    0.6197357742834267    0.4931057645540441    0.4595187452276170
    0.5053705440132141    0.6245473070846418    0.4430738636692967
    0.4421462084487678    0.4316722087650042    0.4343987159776312
    0.5386401877087748    0.4486303946080473    0.4319120829143344
    0.6464962020068198    0.5799253659632818    0.4306224606224817
    0.4252452591925115    0.5793588819452146    0.4126639790772487
    0.5625955742859838    0.5396333069047959    0.4021824981792346
    0.3809524309186766    0.4947254269427279    0.3880845652000586
    0.5808913362729601    0.6331780952514702    0.3871108608763492
    0.4789727314625711    0.4992453837374934    0.3788343742428857
    0.5012808690614158    0.5958493363178866    0.3537408399874191
    0.4217223547471677    0.5524792524062822    0.3269608526079981
