Au42 rank 11
1.0
   30.0544478024986113    0.0000000000000000    0.0000000000000000
    0.0000000000000000   29.1369508733727649    0.0000000000000000
    0.0000000000000000    0.0000000000000000   29.8458994757769140
  Au
  42
Direct
    0.4731588239637232    0.4638443507910060    0.6659002914087271
    0.6119843752070027    0.5157832071008106    0.6347465855717952
    0.5562000552331537    0.4411451095583644    0.6306271719748512
    0.3968246196528150    0.4334470054207087    0.6270015767500463
    0.5228434076475728    0.5320304188483375    0.6228601957947107
    0.4791506700096110    0.3979280155962673    0.5976177366099059
    0.4382629397475914    0.5108741834080627    0.5902013471999850
    0.6343527521453253    0.4403684271077063    0.5810956300761505
    0.5847634065151938    0.5745653586363794    0.5661386347545581
    0.6661072404927753    0.5276220501715511    0.5614339266557807
    0.5627979259904924    0.3809600997963601    0.5590534376955578
    0.4035205489849870    0.3774227845565463    0.5521657097053124
    0.4934195570947614    0.5723645522131942    0.5436887137038521
    0.3685791827417216    0.4701448242181839    0.5460052576853354
    0.5139315832516798    0.4749854752749657    0.5449931976633969
    0.4865305635523233    0.3564322282855936    0.5148885229921150
    0.6434307815219571    0.3778170766446420    0.5133699673357492
    0.4196799253250469    0.5358507964312801    0.5017976183786756
    0.5547186985930015    0.6186703968126799    0.4907940866863824
    0.3313329973602666    0.3982494581023708    0.4991211156582048
    0.6613480030092773    0.4682624469570692    0.4907332498777740
    0.6277204217029839    0.5570347060549544    0.4845277074842249
    0.5335353288500616    0.5244367191403205    0.4621306447257349
    0.5680619101648321    0.3436755946665880    0.4712798359666839
    0.5707644310908985    0.4416271301451959    0.4806842357955015
    0.4799279046675205    0.4438475378067851    0.4658029901489259
    0.4682425440862882    0.6007341311753966    0.4564109336761898
    0.4111801465128047    0.3700092918297128    0.4594375757822150
    0.3838679309356678    0.4612688197025503    0.4547631023023104
    0.6341678277427548    0.4038447098319902    0.4229618370480912
    0.5267157692372229    0.6578313572077193    0.4111815155184294
    0.4924783591180124    0.3526943516472031    0.4211216186213010
    0.5766846535467258    0.3458084929058083    0.3793888639012347
    0.4371777062800140    0.4256763630315255    0.3850766686996177
    0.5905015171279415    0.5888091894944467    0.4067758128487368
    0.5067067471809223    0.3902483547725570    0.3373620970266331
    0.4421140495865255    0.5186725504171937    0.4122435045077888
    0.6227957081876337    0.4987880742156778    0.4117324596705095
    0.5051288298333725    0.5736302942627491    0.3732006332552991
    0.4995031536948161    0.4830007250693824    0.3464478572311757
    0.5866158808536693    0.4366812331044300    0.3497225162582218
    0.5786033242938019    0.5280694363061420    0.3360698345469547
