Au42 rank 18
1.0
   29.0440426807568031    0.0000000000000000    0.0000000000000000
    0.0000000000000000   28.3848683844745153    0.0000000000000000
    0.0000000000000000    0.0000000000000000   29.1566706188920577
  Au
  42
Direct
    0.5370204924778728    0.6072318122959847    0.6590875265478748
    0.5698207242709915    0.5153577272779368    0.6534601006615354
    0.4508294466213545    0.6338713329862148    0.6358109262592674
    0.4810585977201398    0.5364163507458347    0.6262494062103799
    0.5217135005343954    0.4479866826974694    0.6053880118765739
    0.3614510913002676    0.6490937744396114    0.6071511662935076
    0.3957250800433553    0.5606489124488849    0.5922237460432189
    0.6006779145173993    0.5787455188036085    0.5890582120511244
    0.4296124426135557    0.4685356036171463    0.5811860909665842
    0.6074082098022223    0.4804482110399006    0.5740742583134298
    0.4717127208626822    0.3828292985186189    0.5571513334646594
    0.5217314613894072    0.6264510035531918    0.5667543831605450
    0.5631600887781506    0.4082387413826876    0.5281065481507592
    0.4306217858598857    0.6443586232282591    0.5425604259406602
    0.4687981274185902    0.5446434606227629    0.5281801990927795
    0.3426616700824146    0.6051824003152443    0.5230251308862013
    0.3677046439068720    0.5083413638255774    0.5166129802706716
    0.6607034524809365    0.5438644518651244    0.5245986935686628
    0.3902779124229944    0.4135653804099972    0.5124941074358760
    0.4782065192205534    0.4497984951344257    0.4866300429853279
    0.5848626665879201    0.6042606131162992    0.4981832353893984
    0.6345746926826524    0.4578682333082031    0.4855391522564180
    0.5515576780800405    0.5095633522517854    0.4934435903444718
    0.5083007301316724    0.3497138791843667    0.4749213218542244
    0.4958091308544701    0.6298956016423524    0.4751192962173446
    0.4012806635227804    0.6432195866218299    0.4545423954063706
    0.5820958700862171    0.3972794901997316    0.4339456592199809
    0.3532554883190502    0.5597700606369342    0.4394252107390569
    0.4762228277280504    0.5297983195808328    0.4357235280799651
    0.3866218585883849    0.4690102369062238    0.4319452053220148
    0.6306200758430477    0.5459383328507935    0.4357508140911672
    0.4282028839741111    0.3820606796573924    0.4307065424894608
    0.5524809902944405    0.5938895421341187    0.4075315110605033
    0.5088270768619271    0.3710778545719093    0.3817693682739984
    0.6391725914228575    0.4596557995820674    0.3915610614325953
    0.3677749534156363    0.6229964233815677    0.3682583929563190
    0.4570000965813591    0.4515032657305493    0.3670590197601469
    0.4618711912647235    0.6149549860760712    0.3861484852339540
    0.5981065654230892    0.5345611317103982    0.3467237436005696
    0.5524310498723071    0.4489271741049981    0.3525645568836853
    0.4083438395198350    0.5347490822934121    0.3638010927799601
    0.5042183501509568    0.5339981489049718    0.3432359158105899
