Au42 rank 8
1.0
   28.7018307183659793    0.0000000000000000    0.0000000000000000
    0.0000000000000000   31.7999954030474150    0.0000000000000000
    0.0000000000000000    0.0000000000000000   29.1090648137908588
  Au
  42
Direct
    0.4362063323931540    0.6024422098313185    0.5714423940498917
    0.4448814635441276    0.5183580537285999    0.5936337267141060
    0.4575979711998928    0.4340335813169633    0.6118472470715381
    0.5293621158361270    0.4898242014568241    0.6261457490606013
    0.5209978750751008    0.5712468369394584    0.5987366489581445
    0.5398900319112835    0.4073471143835581    0.6555019565482721
    0.4833037424735521    0.3489440487776908    0.6169061499475610
    0.5015425393050285    0.3262795527372986    0.5290672921271034
    0.4326919505213203    0.6858256920265228    0.5407063809205157
    0.6052183078507096    0.5284291465195747    0.5867089734197670
    0.6065919714181274    0.4434540889390373    0.6008243240566118
    0.5733596256673996    0.3586947505347217    0.5844067755668104
    0.5999662245824460    0.6132481147492969    0.5690473350143889
    0.3922924617815285    0.4589604844163587    0.5495485835774935
    0.6522673612325791    0.3905818854800431    0.5431341277089117
    0.5172482945009085    0.6511208172948940    0.5553772391453506
    0.3811705161715414    0.5435299956705951    0.5285565496734497
    0.4210904824690516    0.3727697520245488    0.5527240657415813
    0.6480136378664174    0.4769421291113283    0.5233012365553982
    0.5907641053307823    0.3431763028774845    0.4941460384417442
    0.3904181569757731    0.6257257728889747    0.4903489053762513
    0.6336486615774271    0.5599672298242744    0.5029831870771360
    0.5195673800842366    0.3155233063229678    0.4382441612088238
    0.3646629522012076    0.4010455906105073    0.4843463996960027
    0.3600620627832029    0.4831205257304632    0.4635349063654571
    0.5717104078559618    0.6297193495936062    0.4806584274350518
    0.6333783335277660    0.4173159394453117    0.4561788750285171
    0.3492874914960793    0.5655748124650004    0.4406242444737725
    0.4801413556071077    0.6542563178326006    0.4652661507295122
    0.4404247454611680    0.3561141419628574    0.4601579764611501
    0.6304621659259934    0.5015431439533317    0.4336265256546351
    0.5918578092761112    0.3592603442051256    0.4001790718009289
    0.4173924184560393    0.4307580950983526    0.4118498094171453
    0.4301209762370888    0.6018849084560509    0.4073393183238352
    0.6179380953358585    0.5866611083598555    0.4143565201376371
    0.5005488880248953    0.3909074237054322    0.3944664665798761
    0.5765393171536478    0.4443497645990802    0.3860495554018856
    0.4073912330851860    0.5152023900301036    0.3893615721791420
    0.5258231615452634    0.6070750410853741    0.4017356776201822
    0.5613279588367051    0.5278179006159293    0.3740521511723996
    0.4876840323903628    0.4724637214568019    0.3667807723121119
    0.4768912659960700    0.5564808372057335    0.3424784259673069
