Au42 rank 14
1.0
   28.5846183663210311    0.0000000000000000    0.0000000000000000
    0.0000000000000000   31.1828480631267055    0.0000000000000000
    0.0000000000000000    0.0000000000000000   29.9744746431797822
  Au
  42
Direct
    0.4273590439644243    0.4952556497268218    0.6486550071750730
    0.4458362336867326    0.4138366686249456    0.6240111833834530
    0.4076939847326106    0.5797961195807263    0.6664052431660230
    0.4867023900980851    0.5593508792957986    0.6158415218640970
    0.5131059112640386    0.4739861710873762    0.6030190001964013
    0.4307677049723268    0.6307981694947964    0.5953239980775090
    0.3824971900793600    0.5499540102833885    0.5837605433896444
    0.3878491495867145    0.4614061035956531    0.5669874648609837
    0.4177059000468223    0.3797384211156141    0.5445166906143308
    0.5618200326226758    0.5393539135519381    0.5616846513237085
    0.6299728525821889    0.5204914590054024    0.4991977772174181
    0.5871593308545389    0.4540306009206350    0.5440520361029053
    0.5149298041795242    0.6161986359870190    0.5502511873280206
    0.5135996631318669    0.3954416323106889    0.5599577586779281
    0.4581715381861484    0.5192081274489653    0.5327824595111668
    0.4517379610624103    0.6771674248144044    0.5206857518215781
    0.3937121434190373    0.6041666902975804    0.5115508990449822
    0.3615487923776294    0.5201189184824814    0.4983518160913499
    0.3728563497273500    0.4326869894119614    0.4817824472653599
    0.5194367014153620    0.5476846550187403    0.4695558353258203
    0.5929171399331128    0.6022978957520216    0.4974590389308688
    0.4026849842239772    0.3481879962686520    0.4598514646002640
    0.5090913522929403    0.4578163116578378    0.4867568840471914
    0.6606579746939714    0.5779693455242061    0.4352491061349997
    0.6268419429611772    0.4414883483020330    0.4590902231496268
    0.5614566405234437    0.3825953958330883    0.4786582245771118
    0.4861267213318611    0.3313183831861885    0.5009390137479431
    0.5123349421517723    0.6407761245487120    0.4605397977741572
    0.4433514597441268    0.5004435121706619    0.4415517291771223
    0.4205687669121136    0.6548094019000466    0.4367263205608491
    0.3846859002090132    0.5738501790906638    0.4251060835576289
    0.3527947976704375    0.4888273738405505    0.4107602011826956
    0.5703210719833776    0.5919743648732055    0.4035554012895466
    0.3876404960642219    0.4036327926903120    0.3934455142473085
    0.4809791093696224    0.3860994291755215    0.4248300974651736
    0.5522697724484910    0.4407999953002730    0.3996648796843815
    0.6105055682026546    0.5097914935635468    0.4027248216649562
    0.4727506090120013    0.5951698810447260    0.3891883139588377
    0.5204499229265823    0.5204516248679482    0.3699078264142457
    0.4651959463627469    0.4479216984632790    0.3601457147957623
    0.4240613803990328    0.5294843266551220    0.3512963042587713
    0.3744433777176008    0.4585639109783167    0.3246866764033206
